! TOUCHSTONE file generated by CST MICROWAVE STUDIO
! Date and time: Tue Sep 15 07:32:57 2026
! Project name: transformer_FD.cst
! Header version: 2024
! Port assignment regex: !\s*Touchstone port\s*([0-9]+)\s*=\s*(CST MWS port|CST DES external port|CST DES block port)\s*(.+)\s* \(\"(.*)\"\)(\s*mode\s*([0-9]+))?.*
! Touchstone port assignment:
! Touchstone port 1 = CST MWS port 1 ("P1")
! Touchstone port 2 = CST MWS port 2 ("P2")
! Touchstone port 3 = CST MWS port 3 ("S1")
! Touchstone port 4 = CST MWS port 4 ("S2")
# GHz S MA R 50
10                   0.071889972      65.7713896      0.981374154     -11.8426109     0.0541043487      76.7310429     0.0216728023     -109.337315
                     0.981374154     -11.8426108     0.0718899321      65.7709858      0.021672775     -109.337213     0.0541043995      76.7309164
                    0.0541043488      76.7310429      0.021672775     -109.337213     0.0190077886      27.2777425      0.984274646     -10.9529269
                    0.0216728023     -109.337315     0.0541043996      76.7309164      0.984274646     -10.9529269     0.0190081833      27.2766667
10.14               0.0722034661      65.7218774      0.981171743     -11.9387367      0.054162469      76.3344751     0.0217000972     -109.610214
                     0.981171743     -11.9387366     0.0722032923       65.721183      0.021700078     -109.609883     0.0541625549      76.3341755
                    0.0541624691      76.3344752      0.021700078     -109.609883     0.0192369894      27.0189714      0.984365392     -11.0507584
                    0.0217000972     -109.610214     0.0541625549      76.3341755      0.984365392     -11.0507584     0.0192376752      27.0179003
10.28               0.0725179658      65.6723202      0.980967487     -12.0350686      0.054222895      75.9377912     0.0217279556     -109.883272
                     0.980967487     -12.0350685     0.0725176574       65.671337     0.0217279436     -109.882713     0.0542230178      75.9373192
                    0.0542228951      75.9377912     0.0217279437     -109.882713     0.0194668638      26.7650752      0.984455118     -11.1487567
                    0.0217279556     -109.883272     0.0542230178      75.9373191      0.984455118     -11.1487567     0.0194678407      26.7640137
10.42               0.0728334756      65.6227169      0.980761376      -12.131607     0.0542856347      75.5410202     0.0217563804     -110.156478
                     0.980761376      -12.131607      0.072833032      65.6214469     0.0217563749     -110.155691     0.0542857964      75.5403765
                    0.0542856348      75.5410203      0.021756375     -110.155691      0.019697404      26.5158997      0.984543817      -11.246922
                    0.0217563804     -110.156478     0.0542857964      75.5403765      0.984543817      -11.246922     0.0196986717      26.5148525
10.56               0.0731499999      65.5730665      0.980553402     -12.2283524     0.0543506961      75.1441915     0.0217853746      -110.42982
                     0.980553402     -12.2283524     0.0731494204      65.5715114     0.0217853749     -110.428805     0.0543508985      75.1433768
                    0.0543506962      75.1441915     0.0217853749     -110.428805     0.0199286023      26.2712966      0.984631484     -11.3452545
                    0.0217853746     -110.429821     0.0543508985      75.1433768      0.984631483     -11.3452545     0.0199301606      26.2702681
10.7                 0.073467543      65.5233677      0.980343555     -12.3253052     0.0544180867       74.747334     0.0218149412     -110.703288
                     0.980343556     -12.3253051     0.0734668272      65.5215294     0.0218149464     -110.702044     0.0544183317      74.7463492
                    0.0544180868      74.7473341     0.0218149464     -110.702044     0.0201604513      26.0311236      0.984718111     -11.4437544
                    0.0218149412     -110.703288     0.0544183318      74.7463492      0.984718111     -11.4437544     0.0201623001      26.0301176
10.84               0.0737861096      65.4736194      0.980131827     -12.4224658     0.0544878141       74.350477     0.0218450832     -110.976868
                     0.980131828     -12.4224657     0.0737852568      65.4714996     0.0218450925     -110.975397     0.0544881035      74.3493229
                    0.0544878142       74.350477     0.0218450925     -110.975397     0.0203929441      25.7952438      0.984803692     -11.5424218
                    0.0218450832     -110.976868     0.0544881036      74.3493229      0.984803692     -11.5424218     0.0203950833       25.794264
10.98               0.0741057041      65.4238205      0.979918209     -12.5198345     0.0545598852      73.9536495     0.0218758035      -111.25055
                     0.979918209     -12.5198345     0.0741047137      65.4214211     0.0218758161      -111.24885      0.054560221       73.952327
                    0.0545598853      73.9536495     0.0218758161      -111.24885     0.0206260742      25.5635256      0.984888222     -11.6412571
                    0.0218758035      -111.25055      0.054560221       73.952327      0.984888222     -11.6412571     0.0206285035      25.5625753
11.12               0.0744263311      65.3739699      0.979702691      -12.617412     0.0546343071      73.5568805     0.0219071049     -111.524321
                     0.979702691     -12.6174119     0.0744252024      65.3712926     0.0219071201     -111.522393     0.0546346911      73.5553906
                    0.0546343072      73.5568806     0.0219071201     -111.522393      0.020859835      25.3358425      0.984971694     -11.7402604
                    0.0219071049     -111.524321     0.0546346911      73.5553906      0.984971694     -11.7402604     0.0208625543      25.3349248
11.26                0.074747995      65.3240664      0.979485264     -12.7151985     0.0547110864      73.1601992     0.0219389906     -111.798169
                     0.979485264     -12.7151984     0.0747467275       65.321113     0.0219390074     -111.796013     0.0547115204      73.1585427
                    0.0547110865      73.1601992     0.0219390074     -111.796013     0.0210942207      25.1120728      0.985054101      -11.839432
                    0.0219389906     -111.798169     0.0547115205      73.1585426      0.985054101      -11.839432     0.0210972297      25.1111904
11.4                0.0750707006      65.2741089      0.979265919     -12.8131944     0.0547902295      72.7636342     0.0219714632     -112.072082
                      0.97926592     -12.8131944     0.0750692935      65.2708811      0.021971481     -112.069699     0.0547907155      72.7618122
                    0.0547902296      72.7636343      0.021971481     -112.069699     0.0213292253      24.8920994      0.985135437      -11.938772
                    0.0219714632     -112.072082     0.0547907155      72.7618121      0.985135437      -11.938772     0.0213325238      24.8912549
11.54               0.0753944524      65.2240963      0.979044648     -12.9114003     0.0548717428      72.3672146     0.0220045258      -112.34605
                     0.979044648     -12.9114003     0.0753929052      65.2205959     0.0220045437     -112.343439     0.0548722825      72.3652279
                    0.0548717428      72.3672146     0.0220045437     -112.343439     0.0215648435      24.6758094      0.985215696     -12.0382806
                    0.0220045259      -112.34605     0.0548722825      72.3652279      0.985215696     -12.0382806     0.0215684312      24.6750051
11.68                0.075719255      65.1740274       0.97882144     -13.0098165      0.054955632      71.9709688     0.0220381813     -112.620059
                     0.978821441     -13.0098165      0.075717567      65.1702562     0.0220381984      -112.61722     0.0549562273      71.9688187
                    0.0549556321      71.9709689     0.0220381985      -112.61722     0.0218010698      24.4630944      0.985294871     -12.1379581
                    0.0220381813     -112.620059     0.0549562274      71.9688186      0.985294871     -12.1379581     0.0218049466      24.4623323
11.82               0.0760451131      65.1239012      0.978596288     -13.1084435      0.055041903      71.5749256     0.0220724324     -112.894098
                     0.978596288     -13.1084434     0.0760432837      65.1198608      0.022072448     -112.891032     0.0550425557       71.572613
                     0.055041903      71.5749256      0.022072448     -112.891032     0.0220378992      24.2538498      0.985372956     -12.2378046
                    0.0220724324     -112.894098     0.0550425558       71.572613      0.985372956     -12.2378046     0.0220420649      24.2531318
11.96               0.0763720314      65.0737164       0.97836918     -13.2072816     0.0551305611      71.1791132      0.022107282     -113.168154
                     0.978369181     -13.2072816     0.0763700599      65.0694087     0.0221072953     -113.164862     0.0551312731      71.1766394
                    0.0551305612      71.1791133     0.0221072953     -113.164862     0.0222753269      24.0479749      0.985449944     -12.3378203
                     0.022107282     -113.168154     0.0551312732      71.1766394      0.985449943     -12.3378203     0.0222797813      24.0473027
12.1                0.0767000146      65.0234721      0.978140109     -13.3063313     0.0552216118      70.7835602      0.022142733     -113.442217
                      0.97814011     -13.3063313     0.0766979003      65.0188986     0.0221427431     -113.438698     0.0552223849      70.7809261
                    0.0552216119      70.7835602     0.0221427431     -113.438698     0.0225133483      23.8453725      0.985525828     -12.4380055
                     0.022142733     -113.442217     0.0552223849      70.7809261      0.985525828     -12.4380055     0.0225180911      23.8447478
12.24               0.0770290674      64.9731671      0.977909065      -13.405593     0.0553150599      70.3882944     0.0221787881     -113.716274
                     0.977909066      -13.405593     0.0770268097      64.9683296     0.0221787943     -113.712529     0.0553158958      70.3855014
                      0.05531506      70.3882945     0.0221787943     -113.712529      0.022751959      23.6459492      0.985600603     -12.5383604
                    0.0221787881     -113.716274     0.0553158959      70.3855014      0.985600603     -12.5383604       0.02275699      23.6453732
12.38               0.0773591946      64.9228003      0.977676039     -13.5050671     0.0554109102       69.993344     0.0222154502     -113.990312
                      0.97767604     -13.5050671     0.0773567928      64.9177004     0.0222154516     -113.986342     0.0554118108      69.9903932
                    0.0554109103      69.9933441     0.0222154516     -113.986342     0.0229911547      23.4496148      0.985674261     -12.6388851
                    0.0222154502     -113.990312     0.0554118109      69.9903932      0.985674261     -12.6388851     0.0229964736      23.4490887
12.52               0.0776904009      64.8723705      0.977441021     -13.6047541     0.0555091672      69.5987366     0.0222527221     -114.264321
                     0.977441022     -13.6047541     0.0776878544      64.8670099     0.0222527178     -114.260125     0.0555101343      69.5956293
                    0.0555091673      69.5987367     0.0222527178     -114.260125     0.0232309315      23.2562823      0.985746797     -12.7395799
                    0.0222527221     -114.264321     0.0555101344      69.5956293      0.985746797     -12.7395799     0.0232365381      23.2558071
12.66               0.0780226912      64.8218767      0.977204003     -13.7046544     0.0556098353      69.2044999     0.0222906065     -114.538289
                     0.977204003     -13.7046543     0.0780199993      64.8162571     0.0222905958     -114.533868     0.0556108706      69.2012372
                    0.0556098353      69.2044999     0.0222905958     -114.533868     0.0234712855      23.0658677      0.985818203     -12.8404449
                    0.0222906065     -114.538289     0.0556108707      69.2012372      0.985818203     -12.8404449     0.0234771795      23.0654444
12.8                0.0783560703      64.7713177      0.976964974     -13.8047683     0.0557129184      68.8106611     0.0223291061     -114.812203
                     0.976964975     -13.8047683     0.0783532323      64.7654408     0.0223290882     -114.807557     0.0557140237      68.8072445
                    0.0557129184      68.8106612     0.0223290882     -114.807557     0.0237122129        22.87829      0.985888473     -12.9414803
                    0.0223291061     -114.812203     0.0557140238      68.8072445      0.985888473     -12.9414804     0.0237183941      22.8779194
12.94               0.0786905431      64.7206925      0.976723926     -13.9050963     0.0558184203      68.4172474     0.0223682238     -115.086051
                     0.976723927     -13.9050963     0.0786875583      64.7145598     0.0223681977     -115.081182     0.0558195975      68.4136782
                    0.0558184204      68.4172475     0.0223681978     -115.081182     0.0239537103      22.6934712        0.9859576     -13.0426864
                    0.0223682238     -115.086051     0.0558195975      68.4136781        0.9859576     -13.0426864     0.0239601785       22.693154
13.08               0.0790261145      64.6699999      0.976480849     -14.0056389     0.0559263448      68.0242858     0.0224079623     -115.359823
                      0.97648085     -14.0056388     0.0790229821      64.6636131     0.0224079273      -115.35473     0.0559275954      68.0205651
                    0.0559263448      68.0242858     0.0224079273      -115.35473     0.0241957742      22.5113357      0.986025578     -13.1440634
                    0.0224079623     -115.359823     0.0559275955      68.0205651      0.986025578     -13.1440634     0.0242025292      22.5110724
13.22               0.0793627893      64.6192389      0.976235734     -14.1063963     0.0560366949      67.6318027     0.0224483242     -115.633505
                     0.976235734     -14.1063963     0.0793595087      64.6125996     0.0224482794     -115.628189     0.0560380209      67.6279321
                     0.056036695      67.6318028     0.0224482794     -115.628189     0.0244384016      22.3318107        0.9860924     -13.2456113
                    0.0224483242     -115.633505      0.056038021      67.6279321        0.9860924     -13.2456113     0.0244454429      22.3316018
13.36               0.0797005725      64.5684083      0.975988571     -14.2073692      0.056149474      67.2398247     0.0224893123     -115.907086
                     0.975988571     -14.2073691      0.079697143      64.5615181     0.0224892568     -115.901548      0.056150877      67.2358055
                    0.0561494741      67.2398247     0.0224892569     -115.901548     0.0246815892      22.1548257       0.98615806     -13.3473305
                    0.0224893123     -115.907086      0.056150877      67.2358055       0.98615806     -13.3473305     0.0246889168      22.1546716
13.5                 0.080039469      64.5175071      0.975739351     -14.3085578     0.0562646849      66.8483778     0.0225309292     -116.180555
                     0.975739351     -14.3085577     0.0800358899      64.5103676     0.0225308623     -116.174795     0.0562661665      66.8442115
                    0.0562646849      66.8483778     0.0225308623     -116.174795     0.0249253341      21.9803128       0.98622255     -13.4492211
                    0.0225309292     -116.180555     0.0562661666      66.8442115       0.98622255     -13.4492211     0.0249329477      21.9802137
13.64                0.080379484       64.466534      0.975488064     -14.4099625     0.0563823301      66.4574878     0.0225731776       -116.4539
                     0.975488064     -14.4099625     0.0803757545      64.4591469     0.0225730984     -116.447919     0.0563838922      66.4531758
                    0.0563823302      66.4574879     0.0225730984     -116.447919     0.0251696336      21.8082062      0.986285864     -13.5512833
                    0.0225731776       -116.4539     0.0563838922      66.4531758      0.986285864     -13.5512833     0.0251775329      21.8081624
13.78               0.0807206223      64.4154882      0.975234701     -14.5115839     0.0565024122      66.0671803     0.0226160601     -116.727108
                     0.975234702     -14.5115839     0.0807167417      64.4078549     0.0226159678     -116.720907     0.0565040564      66.0627241
                    0.0565024123      66.0671804     0.0226159678     -116.720907      0.025414485      21.6384424      0.986347995     -13.6535172
                    0.0226160601     -116.727108     0.0565040564      66.0627241      0.986347995     -13.6535173     0.0254226697      21.6384539
13.92               0.0810628891      64.3643683      0.974979253     -14.6134223     0.0566249333      65.6774806     0.0226595795     -117.000169
                     0.974979254     -14.6134223     0.0810588567      64.3564905     0.0226594732     -116.993748     0.0566266613      65.6728816
                    0.0566249334      65.6774806     0.0226594732     -116.993748     0.0256598856      21.4709599      0.986408937     -13.7559232
                    0.0226595795     -117.000169     0.0566266613      65.6728816      0.986408937     -13.7559232     0.0256683554      21.4710268
14.06               0.0814062893      64.3131734       0.97472171     -14.7154782     0.0567498955      65.2884135     0.0227037382     -117.273071
                      0.97472171     -14.7154781     0.0814021044      64.3050527     0.0227036171     -117.266431     0.0567517088      65.2836733
                    0.0567498955      65.2884135     0.0227036171     -117.266431      0.025905833      21.3056994      0.986468683     -13.8585013
                    0.0227037382     -117.273071     0.0567517089      65.2836733      0.986468683     -13.8585013     0.0259145877      21.3058217
14.2                0.0817508282      64.2619023      0.974462062     -14.8177519     0.0568773004      64.9000036     0.0227485389     -117.545802
                     0.974462063     -14.8177518     0.0817464899      64.2535402     0.0227484022     -117.538944     0.0568792008      64.8951237
                    0.0568773004      64.9000037     0.0227484022     -117.538944     0.0261523248      21.1426033      0.986527225     -13.9612518
                    0.0227485389     -117.545802     0.0568792009      64.8951237      0.986527225     -13.9612518     0.0261613643      21.1427808
14.34               0.0820965107       64.210554        0.9742003     -14.9202438     0.0570071495      64.5122753     0.0227939842     -117.818351
                     0.974200301     -14.9202438     0.0820920184       64.201952      0.022793831     -117.811275     0.0570091387      64.5072572
                    0.0570071496      64.5122753      0.022793831     -117.811275     0.0263993589       20.981616      0.986584558     -14.0641748
                    0.0227939842     -117.818351     0.0570091388      64.5072572      0.986584558     -14.0641748     0.0264086827      20.9818486
14.48               0.0824433422      64.1591274      0.973936415     -15.0229544     0.0571394443      64.1252524     0.0228400767     -118.090706
                     0.973936415     -15.0229544     0.0824386951       64.150287     0.0228399061     -118.083414     0.0571415238      64.1200977
                    0.0571394444      64.1252525     0.0228399061     -118.083414     0.0266469331      20.8226836      0.986640675     -14.1672706
                    0.0228400767     -118.090706     0.0571415239      64.1200977      0.986640675     -14.1672706      0.026656541      20.8229712
14.62               0.0827913277      64.1076212      0.973670396     -15.1258841     0.0572741858      63.7389586     0.0228868189     -118.362856
                     0.973670397     -15.1258841     0.0827865251       64.098544     0.0228866301     -118.355348     0.0572763573      63.7336689
                    0.0572741859      63.7389587     0.0228866301     -118.355348     0.0268950453      20.6657541      0.986695568     -14.2705392
                    0.0228868189     -118.362856     0.0572763573      63.7336689      0.986695568     -14.2705392     0.0269049371      20.6660964
14.76               0.0831404725      64.0560346      0.973402235     -15.2290334     0.0574113749      63.3534171     0.0229342133     -118.634789
                     0.973402235     -15.2290333     0.0831355135      64.0467221     0.0229340055     -118.627066     0.0574136399      63.3479939
                     0.057411375      63.3534171     0.0229340055     -118.627066     0.0271436936      20.5107769       0.98674923      -14.373981
                    0.0229342133     -118.634789       0.05741364      63.3479939       0.98674923      -14.373981     0.0271538689      20.5111736
14.9                0.0834907818      64.0043663      0.973131921     -15.3324025     0.0575510124      62.9686507     0.0229822625     -118.906495
                     0.973131921     -15.3324024     0.0834856657        63.99482     0.0229820349     -118.898558     0.0575533724      62.9630958
                    0.0575510124      62.9686508     0.0229820349     -118.898558     0.0273928761      20.3577033      0.986801656      -14.477596
                    0.0229822625     -118.906495     0.0575533725      62.9630957      0.986801656      -14.477596     0.0274033347       20.358154
15.04               0.0838422609      63.9526153      0.972859445     -15.4359919     0.0576930985       62.584682      0.023030969     -119.177961
                     0.972859445     -15.4359919     0.0838369869      63.9428367     0.0230307206     -119.169812     0.0576955553      62.5789968
                    0.0576930986      62.5846821     0.0230307207     -119.169812      0.027642591      20.2064858      0.986852838     -14.5813844
                     0.023030969     -119.177961     0.0576955553      62.5789968      0.986852838     -14.5813844     0.0276533327      20.2069901
15.18                0.084194915      63.9007804      0.972584797     -15.5398021     0.0578376338      62.2015331     0.0230803353     -119.449178
                     0.972584797     -15.5398021     0.0841894824       63.890771     0.0230800654     -119.440816     0.0578401887      62.1957194
                    0.0578376338      62.2015331     0.0230800654     -119.440816     0.0278928367      20.0570785      0.986902768     -14.6853465
                    0.0230803353     -119.449178     0.0578401888      62.1957193      0.986902768     -14.6853465     0.0279038612       20.057636
15.32               0.0845487496      63.8488606      0.972307968     -15.6438335     0.0579846182      61.8192257     0.0231303638     -119.720133
                     0.972307968     -15.6438334     0.0845431575      63.8386219     0.0231300715      -119.71156     0.0579872729       61.813285
                    0.0579846182      61.8192257     0.0231300715      -119.71156     0.0281436116      19.9094371      0.986951442     -14.7894824
                    0.0231303638     -119.720133     0.0579872729       61.813285      0.986951441     -14.7894824     0.0281549185      19.9100473
15.46               0.0849037698      63.7968548      0.972028948     -15.7480864     0.0581340516      61.4377811     0.0231810571     -119.990817
                     0.972028948     -15.7480864     0.0848980176      63.7863883     0.0231807415     -119.982033     0.0581368075      61.4317152
                    0.0581340517      61.4377812     0.0231807416     -119.982033      0.028394914      19.7635183       0.98699885     -14.8937922
                    0.0231810571     -119.990817     0.0581368076      61.4317152       0.98699885     -14.8937923     0.0284065031      19.7641808
15.6                0.0852599812      63.7447619      0.971747727     -15.8525613     0.0582859337      61.0572204     0.0232324176     -120.261217
                     0.971747727     -15.8525612     0.0852540679       63.734069     0.0232320779     -120.252224     0.0582887924       61.051031
                    0.0582859338      61.0572205     0.0232320779     -120.252224     0.0286467425      19.6192804      0.987044987     -14.9982763
                    0.0232324176     -120.261217     0.0582887925      61.0510309      0.987044987     -14.9982763     0.0286586136      19.6199946
15.74               0.0856173892      63.6925808      0.971464296     -15.9572585     0.0584402641      60.6775641     0.0232844476     -120.531323
                     0.971464296     -15.9572585      0.085611314       63.681663     0.0232840831     -120.522122      0.058443227      60.6712528
                    0.0584402641      60.6775641     0.0232840831     -120.522122     0.0288990958      19.4766828      0.987089845     -15.1029346
                    0.0232844476     -120.531323      0.058443227      60.6712527      0.987089845     -15.1029346     0.0289112485      19.4774482
15.88                0.085975999      63.6403103      0.971178644     -16.0621786      0.058597042      60.2988323     0.0233371498     -120.801124
                     0.971178645     -16.0621785     0.0859697612       63.629169     0.0233367594     -120.791717     0.0586001106      60.2924008
                     0.058597042      60.2988324     0.0233367594     -120.791716     0.0291519725      19.3356863      0.987133417     -15.2077675
                    0.0233371498     -120.801124     0.0586001106      60.2924007      0.987133417     -15.2077675     0.0291644066      19.3365022
16.02               0.0863358164      63.5879495      0.970890763     -16.1673218     0.0587562666      59.9210448     0.0233905263      -121.07061
                     0.970890764     -16.1673218      0.086329415      63.5765862     0.0233901093     -121.060996     0.0587594423      59.9144948
                    0.0587562666      59.9210449     0.0233901094     -121.060996     0.0294053713      19.1962527      0.987175697      -15.312775
                    0.0233905263      -121.07061     0.0587594423      59.9144947      0.987175697      -15.312775     0.0294180865      19.1971185
16.16               0.0866968466      63.5354971      0.970600642     -16.2726886     0.0589179368      59.5442209     0.0234445797     -121.339769
                     0.970600643     -16.2726886      0.086690281      63.5239132     0.0234441353     -121.329951      0.058921221      59.5375541
                    0.0589179368       59.544221     0.0234441353     -121.329951     0.0296592911      19.0583448      0.987216678     -15.4179574
                    0.0234445798     -121.339769     0.0589212211       59.537554      0.987216678     -15.4179574      0.029672287        19.05926
16.3                0.0870590953      63.4829522      0.970308272     -16.3782795     0.0590820514      59.1683795     0.0234993124     -121.608592
                     0.970308273     -16.3782795     0.0870523645      63.4711491     0.0234988396     -121.598571     0.0590854456      59.1615976
                    0.0590820514      59.1683796     0.0234988396     -121.598571     0.0299137307       18.921927      0.987256352     -15.5233148
                    0.0234993124     -121.608592     0.0590854457      59.1615976      0.987256352     -15.5233148     0.0299270071      18.9228908
16.44               0.0874225679      63.4303135      0.970013643     -16.4840948      0.059248609      58.7935391     0.0235547266     -121.877068
                     0.970013643     -16.4840947     0.0874156712      63.4182927     0.0235542247     -121.866844     0.0592521146      58.7866438
                    0.0592486091      58.7935392     0.0235542247     -121.866844      0.030168689      18.7869641      0.987294712     -15.6288473
                    0.0235547266     -121.877068     0.0592521147      58.7866438      0.987294712     -15.6288473     0.0301822456      18.7879759
16.58               0.0877872702      63.3775801      0.969716744     -16.5901349     0.0594176081      58.4197178     0.0236108248     -122.145187
                     0.969716745     -16.5901348     0.0877802067       63.365343     0.0236102929     -122.134761     0.0594212264      58.4127108
                    0.0594176082      58.4197178     0.0236102929     -122.134761      0.030424165      18.6534224      0.987331752     -15.7345552
                    0.0236108248     -122.145187     0.0594212265      58.4127108      0.987331752     -15.7345553     0.0304380016      18.6544815
16.72               0.0881532076      63.3247507      0.969417567     -16.6964002      0.059589047      58.0469331     0.0236676093     -122.412938
                     0.969417568     -16.6964001     0.0881459764      63.3122987     0.0236670466     -122.402312     0.0595927794      58.0398163
                     0.059589047      58.0469332     0.0236670466     -122.402312     0.0306801577      18.5212689      0.987367464     -15.8404387
                    0.0236676093     -122.412938     0.0595927794      58.0398162      0.987367464     -15.8404387     0.0306942739      18.5223747
16.86               0.0885203859      63.2718243      0.969116102     -16.8028911     0.0597629237      57.6752024     0.0237250824      -122.68031
                     0.969116102     -16.8028911     0.0885129862      63.2591588      0.023724488     -122.669486     0.0597667715      57.6679773
                    0.0597629237      57.6752024      0.023724488     -122.669486     0.0309366662      18.3904717      0.987401842     -15.9464978
                    0.0237250824     -122.680311     0.0597667715      57.6679773      0.987401842     -15.9464978     0.0309510618      18.3916234
17                  0.0888888107      63.2187999      0.968812338     -16.9096081     0.0599392362      57.3045423     0.0237832464     -122.947296
                     0.968812338     -16.9096081     0.0888812416      63.2059222     0.0237826195     -122.936274     0.0599432007      57.2972108
                    0.0599392362      57.3045424     0.0237826195     -122.936274     0.0311936897      18.2609998      0.987434877     -16.0527327
                    0.0237832464     -122.947296     0.0599432008      57.2972107      0.987434877     -16.0527327     0.0312083643      18.2621967
17.14               0.0892584877      63.1656762      0.968506266     -17.0165515     0.0601179823      56.9349692     0.0238421036     -123.213883
                     0.968506266     -17.0165515     0.0892507483      63.1525878     0.0238414434     -123.202665     0.0601220649       56.927533
                    0.0601179823      56.9349693     0.0238414434     -123.202664     0.0314512273      18.1328229      0.987466564     -16.1591437
                    0.0238421036     -123.213883      0.060122065      56.9275329      0.987466564     -16.1591437     0.0314661807      18.1340642
17.28               0.0896294226      63.1124522      0.968197876     -17.1237218     0.0602991597       56.566499     0.0239016564     -123.480062
                     0.968197876     -17.1237218     0.0896215121      63.0991544      0.023900962     -123.468649     0.0603033616      56.5589598
                    0.0602991597      56.5664991      0.023900962     -123.468649     0.0317092782      18.0059118      0.987496895     -16.2657307
                    0.0239016564     -123.480062     0.0603033617      56.5589598      0.987496895     -16.2657308     0.0317245101      18.0071967
17.42               0.0900016212      63.0591268      0.967887157     -17.2311193     0.0604827659      56.1991472      0.023961907     -123.745824
                     0.967887158     -17.2311193     0.0899935388       63.045621     0.0239611775     -123.734217     0.0604870884      56.1915067
                    0.0604827659      56.1991473     0.0239611776     -123.734217     0.0319678418      17.8802379      0.987525862     -16.3724942
                     0.023961907     -123.745824     0.0604870885      56.1915067      0.987525862     -16.3724942     0.0319833518      17.8815657
17.56               0.0903750894      63.0056989      0.967574102     -17.3387445     0.0606687982      55.8329288     0.0240228576     -124.011159
                     0.967574102     -17.3387444      0.090366834      62.9919865     0.0240220923     -123.999359     0.0606732426      55.8251888
                    0.0606687982      55.8329289     0.0240220924     -123.999359     0.0322269173      17.7557735      0.987553459     -16.4794341
                    0.0240228576     -124.011159     0.0606732427      55.8251887      0.987553459     -16.4794341     0.0322427052      17.7571435
17.7                0.0907498328      62.9521673      0.967258698     -17.4465976     0.0608572539      55.4678584     0.0240845106     -124.276057
                     0.967258699     -17.4465976     0.0907414037      62.9382496     0.0240837086     -124.264066     0.0608618214      55.4600205
                     0.060857254      55.4678585     0.0240837087     -124.264066     0.0324865041      17.6324916      0.987579679     -16.5865506
                    0.0240845106     -124.276057     0.0608618215      55.4600205      0.987579679     -16.5865506     0.0325025695      17.6339029
17.84               0.0911258574       62.898531      0.966940937     -17.5546793     0.0610481301      55.1039501     0.0241468681     -124.540509
                     0.966940938     -17.5546792     0.0911172536      62.8844094     0.0241460287     -124.528329     0.0610528219      55.0960162
                    0.0610481302      55.1039502     0.0241460287     -124.528329     0.0327466016      17.5103661      0.987604514     -16.6938439
                    0.0241468681     -124.540509      0.061052822      55.0960162      0.987604514     -16.6938439     0.0327629442       17.511818
17.98               0.0915031691      62.8447888      0.966620809     -17.6629898     0.0612414238      54.7412177     0.0242099324     -124.804505
                     0.966620809     -17.6629897     0.0914943897      62.8304646     0.0242090547     -124.792137     0.0612462411      54.7331894
                    0.0612414238      54.7412178     0.0242090547     -124.792137     0.0330072092      17.3893713      0.987627957     -16.8013141
                    0.0242099324     -124.804505     0.0612462411      54.7331894      0.987627957     -16.8013141     0.0330238288       17.390863
18.12               0.0918817738      62.7909397      0.966298303     -17.7715295     0.0614371317      54.3796745     0.0242737058     -125.068037
                     0.966298303     -17.7715294     0.0918728178      62.7764142     0.0242727889     -125.055482     0.0614420757      54.3715535
                    0.0614371318      54.3796745     0.0242727889     -125.055481     0.0332683264      17.2694825      0.987650001     -16.9089615
                    0.0242737058     -125.068037     0.0614420758      54.3715535      0.987650001     -16.9089615     0.0332852226      17.2710132
18.26               0.0922616773      62.7369825       0.96597341     -17.8802988     0.0616352507      54.0193332     0.0243381904     -125.331094
                      0.96597341     -17.8802988      0.092252544      62.7222571     0.0243372335     -125.318354     0.0616403225      54.0111213
                    0.0616352507      54.0193332     0.0243372335     -125.318354     0.0335299527      17.1506756      0.987670639     -17.0167861
                    0.0243381904     -125.331094     0.0616403226      54.0111213      0.987670639     -17.0167861     0.0335471253      17.1522444
18.4                0.0926428858      62.6829161       0.96564612     -17.9892982     0.0618357773      53.6602063     0.0244033884     -125.593669
                      0.96564612     -17.9892981     0.0926335741      62.6679921     0.0244023907     -125.580745      0.061840978      53.6519053
                    0.0618357773      53.6602064     0.0244023908     -125.580745     0.0337920877      17.0329269      0.987689864      -17.124788
                    0.0244033884     -125.593669     0.0618409781      53.6519052      0.987689864      -17.124788     0.0338095363       17.034533
18.54               0.0930254052      62.6287393      0.965316423      -18.098528      0.062038708      53.3023059      0.024469302     -125.855753
                     0.965316423      -18.098528     0.0930159142      62.6136181     0.0244682628     -125.842646     0.0620440388      53.2939173
                     0.062038708      53.3023059     0.0244682628     -125.842646      0.034054731      16.9162136      0.987707668     -17.2329675
                    0.0244693021     -125.855753     0.0620440389      53.2939172      0.987707667     -17.2329675     0.0340724552      16.9178563
18.68               0.0934092415      62.5744512      0.964984308     -18.2079886     0.0622440392      52.9456433     0.0245359335     -126.117336
                     0.964984309     -18.2079886     0.0933995704      62.5591339     0.0245348518     -126.104047     0.0622495012      52.9371689
                    0.0622440392      52.9456433     0.0245348519     -126.104047     0.0343178821      16.8005135      0.987724043     -17.3413247
                    0.0245359335     -126.117336     0.0622495012      52.9371689      0.987724043     -17.3413247     0.0343358817      16.8021919
18.82               0.0937944009      62.5200504      0.964649767     -18.3176805     0.0624517671      52.5902298      0.024603285     -126.378409
                     0.964649768     -18.3176804     0.0937845486      62.5045385     0.0246021601     -126.364942     0.0624573614      52.5816713
                    0.0624517672      52.5902298     0.0246021601     -126.364942     0.0345815407      16.6858047      0.987738984     -17.4498597
                     0.024603285      -126.37841     0.0624573614      52.5816713      0.987738984     -17.4498597     0.0345998154      16.6875181
18.96               0.0941808894       62.465536      0.964312789     -18.4276039      0.062661888      52.2360761     0.0246713586     -126.638966
                      0.96431279     -18.4276039      0.094170855      62.4498308     0.0246701896      -126.62532     0.0626676156      52.2274351
                    0.0626618881      52.2360761     0.0246701896      -126.62532     0.0348457065      16.5720662      0.987752482     -17.5585727
                    0.0246713586     -126.638966     0.0626676157      52.2274351      0.987752482     -17.5585727     0.0348642559      16.5738137
19.1                0.0945687132      62.4109068      0.963973364     -18.5377593     0.0628743979      51.8831923     0.0247401565     -126.898996
                     0.963973365     -18.5377593     0.0945584957      62.3950095     0.0247389427     -126.885173     0.0628802598      51.8744706
                    0.0628743979      51.8831924     0.0247389427     -126.885173     0.0351103792      16.4592774      0.987764531     -17.6674638
                    0.0247401565     -126.898996     0.0628802599      51.8744706      0.987764531     -17.6674638      0.035129203      16.4610581
19.24               0.0949578784      62.3561617      0.963631483     -18.6481472     0.0630892928      51.5315884     0.0248096809     -127.158492
                     0.963631483     -18.6481471     0.0949474769      62.3400736     0.0248084214     -127.144494     0.0630952901      51.5227876
                    0.0630892928      51.5315885     0.0248084214     -127.144494     0.0353755585      16.3474181      0.987775122     -17.7765332
                    0.0248096809     -127.158492     0.0630952902      51.5227876      0.987775122     -17.7765332     0.0353946564      16.3492313
19.38               0.0953483913      62.3012995      0.963287134     -18.7587678     0.0633065685      51.1812738     0.0248799339     -127.417445
                     0.963287135     -18.7587677     0.0953378048      62.2850218     0.0248786279     -127.403274     0.0633127022      51.1723956
                    0.0633065685      51.1812739     0.0248786279     -127.403274     0.0356412442      16.2364688      0.987784249     -17.8857809
                    0.0248799339     -127.417445     0.0633127023      51.1723955      0.987784249     -17.8857809     0.0356606159      16.2383137
19.52               0.0957402581      62.2463191      0.962940309     -18.8696216     0.0635262209      50.8322576     0.0249509177     -127.675849
                     0.962940309     -18.8696215     0.0957294856      62.2298532     0.0249495644     -127.661505      0.063532492      50.8233035
                    0.0635262209      50.8322576     0.0249495644     -127.661505     0.0359074362      16.1264105      0.987791905     -17.9952072
                    0.0249509177     -127.675849     0.0635324921      50.8233034      0.987791905     -17.9952072     0.0359270812      16.1282863
19.66                0.096133485      62.1912193      0.962590997     -18.9807089     0.0637482457      50.4845482     0.0250226343     -127.933693
                     0.962590998     -18.9807088     0.0961225256      62.1745665     0.0250212329      -127.91918     0.0637546552      50.4755199
                    0.0637482457      50.4845482     0.0250212329      -127.91918     0.0361741341      16.0172246      0.987798082     -18.1048121
                    0.0250226343     -127.933693     0.0637546552      50.4755199      0.987798081     -18.1048121     0.0361940522      16.0191303
19.8                0.0965280783      62.1359991      0.962239188     -19.0920302     0.0639726385      50.1381539     0.0250950859     -128.190972
                     0.962239189     -19.0920301      0.096516931      62.1191606     0.0250936356      -128.17629     0.0639791873      50.1290531
                    0.0639726385      50.1381539     0.0250936356      -128.17629     0.0364413378      15.9088928      0.987802772     -18.2145959
                    0.0250950859     -128.190972     0.0639791873      50.1290531      0.987802772     -18.2145959     0.0364615287      15.9108279
19.94               0.0969240445      62.0806573      0.961884873     -19.2035858     0.0641993949      49.7930825     0.0251682746     -128.447677
                     0.961884874     -19.2035857     0.0969127083      62.0636344     0.0251667747     -128.432827     0.0642060839      49.7839108
                    0.0641993949      49.7930825     0.0251667747     -128.432827     0.0367090473      15.8013977      0.987805968     -18.3245585
                    0.0251682746     -128.447677      0.064206084      49.7839108      0.987805968     -18.3245585     0.0367295106      15.8033611
20.08               0.0973213898      62.0251928      0.961528041     -19.3153761     0.0644285104      49.4493414     0.0252422025       -128.7038
                     0.961528042      -19.315376     0.0973098637      62.0079866     0.0252406521     -128.688785     0.0644353406      49.4401004
                    0.0644285104      49.4493414     0.0252406521     -128.688785     0.0369772624      15.6947219      0.987807664     -18.4347002
                    0.0252422025       -128.7038     0.0644353406      49.4401003      0.987807664     -18.4347003     0.0369979977      15.6967129
20.22               0.0977201207      61.9696043      0.961168683     -19.4274015     0.0646599803      49.1069376     0.0253168718     -128.959335
                     0.961168683     -19.4274015     0.0977084036      61.9522162     0.0253152701     -128.944156     0.0646669526      49.0976288
                    0.0646599804      49.1069376     0.0253152701     -128.944156      0.037245983      15.5888486      0.987807851     -18.5450212
                    0.0253168718     -128.959335     0.0646669527      49.0976287      0.987807851     -18.5450212       0.03726699      15.5908664
20.36               0.0981202436      61.9138908      0.960806788     -19.5396624     0.0648938002      48.7658776     0.0253922844     -129.214274
                     0.960806788     -19.5396624     0.0981083345       61.896322     0.0253906307     -129.198933     0.0649009154      48.7565027
                    0.0648938002      48.7658776     0.0253906308     -129.198933      0.037515209      15.4837615      0.987806523     -18.6555214
                    0.0253922844     -129.214274     0.0649009154      48.7565026      0.987806523     -18.6555214     0.0375364874      15.4858053
20.5                0.0985217649      61.8580512      0.960442346     -19.6521592     0.0651299652      48.4261677     0.0254684426      -129.46861
                     0.960442347     -19.6521591     0.0985096629      61.8403029     0.0254667361     -129.453108     0.0651372242      48.4167282
                    0.0651299652      48.4261678     0.0254667361     -129.453108     0.0377849405      15.3794444      0.987803671     -18.7662011
                    0.0254684426      -129.46861     0.0651372242      48.4167282      0.987803671     -18.7662011     0.0378064899      15.3815134
20.64               0.0989246912      61.8020842      0.960075348     -19.7648922     0.0653684705      48.0878138     0.0255453484     -129.722336
                     0.960075348     -19.7648921     0.0989123952      61.7841576     0.0255435883     -129.706675     0.0653758742      48.0783112
                    0.0653684706      48.0878138     0.0255435883     -129.706674     0.0380551773      15.2758819      0.987799289     -18.8770603
                    0.0255453484     -129.722336     0.0653758742      48.0783112      0.987799289     -18.8770603     0.0380769974      15.2779753
20.78                0.099329029      61.7459886      0.959705783     -19.8778618     0.0656093115      47.7508213     0.0256230039     -129.975445
                     0.959705784     -19.8778617     0.0993165379      61.7278851     0.0256211894     -129.959626     0.0656168606      47.7412571
                    0.0656093115      47.7508213     0.0256211894     -129.959626     0.0383259196      15.1730587      0.987793369     -18.9880993
                    0.0256230039     -129.975445     0.0656168607      47.7412571      0.987793369     -18.9880993       0.03834801      15.1751756
20.92               0.0997347849      61.6897635      0.959333642     -19.9910684     0.0658524832      47.4151952     0.0257014112     -130.227931
                     0.959333642     -19.9910684     0.0997220977      61.6714842     0.0256995416     -130.211955     0.0658601786      47.4055711
                    0.0658524832      47.4151952     0.0256995416     -130.211955     0.0385971673      15.0709598      0.987785904      -19.099318
                    0.0257014112     -130.227931     0.0658601786       47.405571      0.987785904      -19.099318     0.0386195276      15.0730995
21.06                0.100141965      61.6334075      0.958958914     -20.1045124     0.0660979807      47.0809403     0.0257805724     -130.479786
                     0.958958914     -20.1045124      0.100129081      61.6149536     0.0257786468     -130.463656     0.0661058231      47.0712577
                    0.0660979807      47.0809403     0.0257786468     -130.463656     0.0388689204      14.9695708      0.987776886     -19.2107167
                    0.0257805724     -130.479786     0.0661058232      47.0712576      0.987776886     -19.2107167     0.0388915503      14.9717325
21.2                 0.100550577      61.5769195       0.95858159     -20.2181942      0.066345799      46.7480609     0.0258604895     -130.731004
                      0.95858159     -20.2181942      0.100537495      61.5582923     0.0258585072     -130.714722     0.0663537893      46.7383213
                     0.066345799      46.7480609     0.0258585072     -130.714722      0.039141179      14.8688774      0.987766308     -19.3222954
                    0.0258604895     -130.731004     0.0663537894      46.7383213      0.987766308     -19.3222955     0.0391640781      14.8710604
21.34                0.100960627      61.5202984      0.958201659     -20.3321141     0.0665959332      46.4165611     0.0259411646     -130.981579
                     0.958201659      -20.332114      0.100947345       61.501499     0.0259391249     -130.965146     0.0666040721      46.4067659
                    0.0665959332      46.4165611     0.0259391249     -130.965146     0.0394139432      14.7688659      0.987754162     -19.4340544
                    0.0259411646     -130.981579     0.0666040722      46.4067659      0.987754162     -19.4340544     0.0394371112      14.7710693
21.48                0.101372122       61.463543      0.957819112     -20.4462725     0.0668483782      46.0864444     0.0260225998     -131.231505
                     0.957819112     -20.4462725       0.10135864      61.4445726     0.0260205019     -131.214923     0.0668566664      46.0765952
                    0.0668483782      46.0864445     0.0260205019     -131.214923     0.0396872131      14.6695227      0.987740441     -19.5459935
                    0.0260225999     -131.231505     0.0668566665      46.0765952      0.987740441     -19.5459935     0.0397106495      14.6717457
21.62                0.101785068      61.4066521      0.957433938     -20.5606698      0.067103129      45.7577142     0.0261047973     -131.480776
                     0.957433938     -20.5606697      0.101771384       61.387512     0.0261026403     -131.464046     0.0671115672      45.7478124
                     0.067103129      45.7577143     0.0261026404     -131.464046     0.0399609888      14.5708345      0.987725138     -19.6581131
                    0.0261047973     -131.480776     0.0671115673      45.7478124      0.987725138     -19.6581131     0.0399846933      14.5730765
21.76                0.102199472      61.3496245      0.957046128     -20.6753063     0.0673601804      45.4303735      0.026187759     -131.729385
                     0.957046128     -20.6753063      0.102185586      61.3303158     0.0261855423      -131.71251     0.0673687694      45.4204205
                    0.0673601804      45.4303735     0.0261855423      -131.71251     0.0402352704      14.4727886      0.987708245     -19.7704132
                     0.026187759     -131.729385     0.0673687695      45.4204205      0.987708245     -19.7704132     0.0402592426      14.4750486
21.9                 0.102615341       61.292459      0.956655671     -20.7901825     0.0676195273      45.1044248      0.026271487     -131.977328
                     0.956655672     -20.7901824      0.102601251       61.272983     0.0262692098     -131.960308     0.0676282678      45.0944221
                    0.0676195273      45.1044248     0.0262692098     -131.960308      0.040510058      14.3753721      0.987689754     -19.8828939
                     0.026271487     -131.977328     0.0676282679       45.094422      0.987689754     -19.8828939     0.0405342976      14.3776495
22.04                0.103032682      61.2351545      0.956262559     -20.9052986     0.0678811646      44.7798705     0.0263559834     -132.224597
                     0.956262559     -20.9052986      0.103018388      61.2155123      0.026353645     -132.207435     0.0678900572      44.7698194
                    0.0678811647      44.7798705      0.026353645     -132.207435     0.0407853519      14.2785729      0.987669659     -19.9955553
                    0.0263559834     -132.224597     0.0678900573      44.7698193      0.987669659     -19.9955553     0.0408098584      14.2808669
22.18                0.103451502      61.1777098       0.95586678     -21.0206551     0.0681450872      44.4567125     0.0264412503     -132.471188
                      0.95586678     -21.0206551      0.103437002      61.1579026       0.02643885     -132.453885     0.0681541325      44.4466144
                    0.0681450872      44.4567125       0.02643885     -132.453885     0.0410611521      14.1823789      0.987647951     -20.1083976
                    0.0264412503     -132.471188     0.0681541326      44.4466143      0.987647951     -20.1083976     0.0410859251      14.1846887
22.32                0.103871808      61.1201237      0.955468324     -21.1362524     0.0684112897      44.1349525     0.0265272898     -132.717095
                     0.955468325     -21.1362523      0.103857101      61.1001527     0.0265248267     -132.699653     0.0684204885      44.1248087
                    0.0684112897      44.1349525     0.0265248267     -132.699653     0.0413374589      14.0867783      0.987624624     -20.2214208
                    0.0265272898     -132.717095     0.0684204885      44.1248087      0.987624623     -20.2214208     0.0413624981      14.0891032
22.46                0.104293606       61.062395      0.955067183     -21.2520907      0.068679767      43.8145918     0.0266141039     -132.962314
                     0.955067183     -21.2520907      0.104278691      61.0422613     0.0266115774     -132.944734     0.0686891198      43.8044037
                    0.0686797671      43.8145918     0.0266115774     -132.944734     0.0416142725      13.9917595      0.987599669      -20.334625
                    0.0266141039     -132.962314     0.0686891199      43.8044037      0.987599669      -20.334625     0.0416395775      13.9940988
22.6                 0.104716903      61.0045225      0.954663345     -21.3681705      0.068950514      43.4956314     0.0267016948     -133.206838
                     0.954663346     -21.3681705      0.104701779      60.9842272     0.0266991041     -133.189122     0.0689600214      43.4854004
                     0.068950514      43.4956314     0.0266991041     -133.189122      0.041891593      13.8973113      0.987573079     -20.4480104
                    0.0267016948     -133.206838     0.0689600214      43.4854004      0.987573079     -20.4480104     0.0419171634      13.8996642
22.74                0.105141708      60.9465049      0.954256802     -21.4844921     0.0692235252      43.1780722     0.0267900645     -133.450663
                     0.954256802     -21.4844921      0.105126373      60.9260494     0.0267874088     -133.432813     0.0692331879      43.1677995
                    0.0692235252      43.1780722     0.0267874088     -133.432813     0.0421694208      13.8034228      0.987544847      -20.561577
                    0.0267900645     -133.450663     0.0692331879      43.1677995      0.987544847      -20.561577     0.0421952561      13.8057886
22.88                0.105568026      60.8883412      0.953847542     -21.6010559     0.0694987956      42.8619144     0.0268792151     -133.693783
                     0.953847543     -21.6010559       0.10555248      60.8677264     0.0268764938     -133.675802      0.069508614      42.8516015
                    0.0694987956      42.8619145     0.0268764938     -133.675802      0.042447756      13.7100831      0.987514966     -20.6753249
                    0.0268792151     -133.693783     0.0695086141      42.8516014      0.987514965     -20.6753249     0.0424738559       13.712461
23.02                0.105995865        60.83003      0.953435557     -21.7178623     0.0697763199      42.5471584     0.0269691486     -133.936195
                     0.953435557     -21.7178622      0.105980106      60.8092572      0.026966361     -133.918083     0.0697862946      42.5368064
                    0.0697763199      42.5471584      0.026966361     -133.918083     0.0427265989      13.6172817      0.987483427     -20.7892543
                    0.0269691487     -133.936195     0.0697862947      42.5368063      0.987483427     -20.7892543      0.042752963       13.619671
23.16                0.106425232      60.7715702      0.953020836     -21.8349115     0.0700560927      42.2338039     0.0270598673     -134.177894
                     0.953020836     -21.8349115      0.106409259      60.7506405     0.0270570126     -134.159652     0.0700662244      42.2234141
                    0.0700560927      42.2338039     0.0270570126     -134.159652     0.0430059498      13.5250083      0.987450223     -20.9033651
                    0.0270598673     -134.177894     0.0700662244      42.2234141      0.987450223     -20.9033652     0.0430325776      13.5274083
23.3                 0.106856134      60.7129605      0.952603369      -21.952204      0.070338109      41.9218506     0.0271513732     -134.418874
                     0.952603369      -21.952204      0.106839947      60.6918751     0.0271484507     -134.400506      0.070348398      41.9114243
                     0.070338109      41.9218506     0.0271484507     -134.400506     0.0432858089      13.4332528      0.987415347     -21.0176576
                    0.0271513732     -134.418874     0.0703483981      41.9114242      0.987415347     -21.0176576        0.0433127      13.4356628
23.44                0.107288578      60.6541998      0.952183147     -22.0697402     0.0706223633      41.6112978     0.0272436684     -134.659132
                     0.952183147     -22.0697401      0.107272175      60.6329598     0.0272406773     -134.640638     0.0706328103      41.6008361
                    0.0706223633      41.6112978     0.0272406774     -134.640638     0.0435661766      13.3420054      0.987378791     -21.1321318
                    0.0272436684     -134.659132     0.0706328103      41.6008361      0.987378791     -21.1321318     0.0435933306      13.3444247
23.58                0.107722572      60.5952867      0.951760159     -22.1875203     0.0709088506      41.3021445      0.027336755     -134.898664
                     0.951760159     -22.1875203      0.107705951      60.5738933     0.0273336947     -134.880046     0.0709194559      41.2916487
                    0.0709088506      41.3021445     0.0273336947     -134.880046     0.0438470531      13.2512563      0.987340548     -21.2467878
                     0.027336755     -134.898664      0.070919456      41.2916487      0.987340548     -21.2467878     0.0438744696      13.2536842
23.72                0.108158122      60.5362201      0.951334396     -22.3055447     0.0711975654      40.9943896     0.0274306352     -135.137464
                     0.951334396     -22.3055447      0.108141284      60.5146743      0.027427505     -135.118725     0.0712083297      40.9838609
                    0.0711975655      40.9943896      0.027427505     -135.118725     0.0441284387      13.1609962       0.98730061     -21.3616257
                    0.0274306352     -135.137464     0.0712083298      40.9838608       0.98730061     -21.3616257     0.0441561172       13.163432
23.86                0.108595237      60.4769988      0.950905848     -22.4238139     0.0714885028      40.6880316      0.027525311      -135.37553
                     0.950905848     -22.4238138      0.108578179      60.4553018     0.0275221101      -135.35667     0.0714994263      40.6774711
                    0.0714885028      40.6880316     0.0275221102      -135.35667     0.0444103338      13.0712159       0.98725897     -21.4766455
                     0.027525311      -135.37553     0.0714994264      40.6774711      0.987258969     -21.4766455      0.044438274      13.0736588
24                   0.109033923      60.4176214      0.950474505      -22.542328     0.0717816573      40.3830688     0.0276207846     -135.612858
                     0.950474505      -22.542328      0.109016644      60.3957744     0.0276175124     -135.593879     0.0717927407      40.3724777
                    0.0717816573      40.3830688     0.0276175124     -135.593879     0.0446927387      12.9819061      0.987215619     -21.5918474
                    0.0276207846     -135.612858     0.0717927407      40.3724777      0.987215619     -21.5918474       0.04472094      12.9843556
24.14                0.109474188      60.3580868      0.950040357     -22.6610876     0.0720770238      40.0794992     0.0277170581     -135.849443
                     0.950040357     -22.6610875      0.109456687      60.3360908      0.027713714     -135.830348     0.0720882674      40.0688787
                    0.0720770238      40.0794993      0.027713714     -135.830348     0.0449756538      12.8930582      0.987170552     -21.7072314
                    0.0277170581     -135.849443     0.0720882675      40.0688787      0.987170552     -21.7072314     0.0450041158      12.8955135
24.28                 0.10991604      60.2983936      0.949603395     -22.7800929     0.0723745972      39.7773208     0.0278141338     -136.085282
                     0.949603395     -22.7800928      0.109898316      60.2762498     0.0278107169     -136.066072     0.0723860014       39.766672
                    0.0723745972      39.7773208     0.0278107169     -136.066072     0.0452590793      12.8046633      0.987123759     -21.8227976
                    0.0278141338     -136.085282     0.0723860015      39.7666719      0.987123759     -21.8227976     0.0452878016      12.8071238
24.42                0.110359485      60.2385408      0.949163608     -22.8993442     0.0726743722      39.4765311     0.0279120136     -136.320372
                     0.949163608     -22.8993442      0.110341536      60.2162502     0.0279085234     -136.301048     0.0726859375      39.4658551
                    0.0726743722      39.4765311     0.0279085234     -136.301048     0.0455430156       12.716713      0.987075234      -21.938546
                    0.0279120137     -136.320372     0.0726859375       39.465855      0.987075234      -21.938546     0.0455719978       12.719178
24.56                0.110804532      60.1785269      0.948720987      -23.018842     0.0729763437      39.1771276     0.0280106999      -136.55471
                     0.948720987      -23.018842      0.110786357      60.1560908     0.0280071356     -136.535273     0.0729880704      39.1664253
                    0.0729763437      39.1771276     0.0280071356     -136.535273     0.0458274632       12.629199      0.987024969     -22.0544768
                       0.0280107      -136.55471     0.0729880705      39.1664253      0.987024969     -22.0544768     0.0458567048      12.6316678
24.7                 0.111251187      60.1183507      0.948275522     -23.1385866     0.0732805066      38.8791072     0.0281101948     -136.788291
                     0.948275523     -23.1385865      0.111232786      60.0957701     0.0281065558     -136.768745     0.0732923951      38.8683799
                    0.0732805066      38.8791072     0.0281065558     -136.768745     0.0461124224      12.5421131      0.986972956     -22.1705901
                    0.0281101948     -136.788291     0.0732923952      38.8683799      0.986972956     -22.1705901     0.0461419229      12.5445851
24.84                0.111699459       60.058011      0.947827204     -23.2585782     0.0735868558      38.5824671     0.0282105005     -137.021113
                     0.947827204     -23.2585782       0.11168083       60.035287      0.028206786     -137.001458     0.0735989065      38.5717158
                    0.0735868558      38.5824671      0.028206786     -137.001458     0.0463978935      12.4554474      0.986919188     -22.2868858
                    0.0282105005     -137.021113     0.0735989066      38.5717158      0.986919188     -22.2868858     0.0464276525      12.4579218
24.98                0.112149355      59.9975065      0.947376022     -23.3788174     0.0738953862       38.287204     0.0283116191     -137.253173
                     0.947376023     -23.3788173      0.112130496      59.9746402     0.0283078286     -137.233411     0.0739075994      38.2764297
                    0.0738953862       38.287204     0.0283078286     -137.233411     0.0466838771      12.3691939      0.986863658     -22.4033641
                    0.0283116191     -137.253173     0.0739075995      38.2764297      0.986863658     -22.4033641      0.046713894      12.3716702
25.12                0.112600882      59.9368359      0.946921968     -23.4993043     0.0742060927      37.9933144     0.0284135529     -137.484468
                     0.946921968     -23.4993042      0.112581793      59.9138284     0.0284096856     -137.464601     0.0742184688      37.9825181
                    0.0742060927      37.9933144     0.0284096857     -137.464601     0.0469703734      12.2833451      0.986806357     -22.5200251
                     0.028413553     -137.484468     0.0742184688      37.9825181      0.986806357     -22.5200251     0.0470006478      12.2858226
25.26                0.113054049      59.8759979       0.94646503     -23.6200393     0.0745189703      37.7007947     0.0285163042     -137.714995
                     0.946465031     -23.6200393      0.113034728      59.8528504     0.0285123594     -137.695025     0.0745315096      37.6899774
                    0.0745189703      37.7007947     0.0285123595     -137.695025     0.0472573828      12.1978934      0.986747279     -22.6368687
                    0.0285163042     -137.714996     0.0745315097      37.6899774      0.986747279     -22.6368687     0.0472879143      12.2003714
25.4                 0.113508863      59.8149913        0.9460052     -23.7410229     0.0748340141       37.409641      0.028619875     -137.944753
                     0.946005201     -23.7410228      0.113489309      59.7917047     0.0286158522     -137.924681     0.0748467169      37.3988038
                    0.0748340141       37.409641     0.0286158523     -137.924681     0.0475449059      12.1128314      0.986686416     -22.7538951
                     0.028619875     -137.944753      0.074846717      37.3988037      0.986686415     -22.7538951      0.047575694      12.1153094
25.54                0.113965332      59.7538147      0.945542469     -23.8622552     0.0751512191      37.1198493     0.0287242678     -138.173737
                     0.945542469     -23.8622552      0.113945543      59.7303903     0.0287201663     -138.153565     0.0751640856      37.1089931
                    0.0751512191      37.1198493     0.0287201663     -138.153565      0.047832943      12.0281519      0.986623759     -22.8711043
                    0.0287242678     -138.173737     0.0751640857       37.108993      0.986623759     -22.8711043     0.0478639872      12.0306293
25.68                0.114423463      59.6924669      0.945076825     -23.9837367     0.0754705803      36.8314155     0.0288294846     -138.401946
                     0.945076826     -23.9837366      0.114403439      59.6689056     0.0288253038     -138.381675     0.0754836109      36.8205412
                    0.0754705803      36.8314155     0.0288253038     -138.381675     0.0481214946      11.9438479      0.986559303     -22.9884964
                    0.0288294847     -138.401946      0.075483611      36.8205411      0.986559303     -22.9884964     0.0481527943      11.9463239
25.82                0.114883265      59.6309466      0.944608261     -24.1054676     0.0757920929      36.5443352     0.0289355279     -138.629377
                     0.944608261     -24.1054676      0.114863004      59.6072495      0.028931267      -138.60901     0.0758052878      36.5334437
                    0.0757920929      36.5443352     0.0289312671      -138.60901      0.048410561      11.8599123      0.986493039     -23.1060714
                    0.0289355279     -138.629377     0.0758052878      36.5334437      0.986493038     -23.1060714     0.0484421159      11.8623865
25.96                0.115344746      59.5692523      0.944136765     -24.2274483      0.076115752      36.2586038     0.0290423999     -138.856029
                     0.944136765     -24.2274483      0.115324246      59.5454206     0.0290380584     -138.835566     0.0761291114      36.2476961
                     0.076115752      36.2586038     0.0290380584     -138.835566     0.0487001428      11.7763385      0.986424959     -23.2238294
                    0.0290423999     -138.856029     0.0761291115       36.247696      0.986424959     -23.2238294     0.0487319523      11.7788101
26.1                 0.115807912       59.507383      0.943662329     -24.3496792     0.0764415527      35.9742167     0.0291501029     -139.081898
                      0.94366233     -24.3496792      0.115787173      59.4834177     0.0291456801     -139.061343      0.076455077      35.9632936
                    0.0764415527      35.9742167     0.0291456801     -139.061343     0.0489902404      11.6931197      0.986355056     -23.3417704
                    0.0291501029     -139.081898      0.076455077      35.9632936      0.986355056     -23.3417704      0.049022304      11.6955882
26.24                0.116272774      59.4453371      0.943184943     -24.4721606     0.0767694904      35.6911689     0.0292586392     -139.306985
                     0.943184944     -24.4721605      0.116251793      59.4212393     0.0292541344     -139.286337     0.0767831796      35.6802314
                    0.0767694904      35.6911689     0.0292541345     -139.286337     0.0492808543      11.6102493      0.986283324     -23.4598945
                    0.0292586392     -139.306985     0.0767831797      35.6802314      0.986283323     -23.4598945     0.0493131715      11.6127141
26.38                0.116739337      59.3831134      0.942704598     -24.5948927     0.0770995602      35.4094556     0.0293680112     -139.531285
                     0.942704599     -24.5948926      0.116718114      59.3588842     0.0293634238     -139.510547     0.0771134147      35.3985045
                    0.0770995602      35.4094556     0.0293634239     -139.510547     0.0495719849       11.527721      0.986209753     -23.5782018
                    0.0293680112     -139.531285     0.0771134148      35.3985045      0.986209753     -23.5782018     0.0496045551      11.5301815
26.52                0.117207611      59.3207106      0.942221284     -24.7178759     0.0774317574      35.1290715     0.0294782211     -139.754798
                     0.942221285     -24.7178759      0.117186144       59.296351     0.0294735506     -139.733972     0.0774457774      35.1181077
                    0.0774317574      35.1290715     0.0294735506     -139.733972     0.0498636326      11.4455285      0.986134337     -23.6966922
                    0.0294782211     -139.754798     0.0774457775      35.1181077      0.986134337     -23.6966922     0.0498964555       11.447984
26.66                0.117677603      59.2581273      0.941734992     -24.8411105     0.0777660775      34.8500115     0.0295892714     -139.977522
                     0.941734992     -24.8411105      0.117655891      59.2336384     0.0295845171     -139.956609     0.0777802631      34.8390357
                    0.0777660775      34.8500114     0.0295845171     -139.956609     0.0501557981      11.3636655      0.986057068     -23.8153659
                    0.0295892715     -139.977522     0.0777802632      34.8390357      0.986057068     -23.8153659     0.0501888729      11.3661156
26.8                 0.118149321      59.1953623      0.941245712     -24.9645969     0.0781025157      34.5722699     0.0297011645     -140.199456
                     0.941245712     -24.9645969      0.118127364      59.1707451     0.0296963258     -140.178457     0.0781168672      34.5612831
                    0.0781025157      34.5722699     0.0296963258     -140.178457     0.0504484817      11.2821261      0.985977938     -23.9342228
                    0.0297011645     -140.199456     0.0781168673       34.561283      0.985977938     -23.9342228      0.050481808      11.2845701
26.94                0.118622774       59.132414      0.940753435     -25.0883354     0.0784410676      34.2958414     0.0298139027     -140.420598
                     0.940753435     -25.0883354      0.118600569      59.1076697     0.0298089789     -140.399515     0.0784555851      34.2848442
                    0.0784410676      34.2958414      0.029808979     -140.399515     0.0507416839      11.2009042      0.985896941      -24.053263
                    0.0298139027     -140.420598     0.0784555852      34.2848442      0.985896941      -24.053263     0.0507752612      11.2033416
27.08                0.119097971      59.0692813      0.940258151     -25.2123263     0.0787817286      34.0207201     0.0299274885     -140.640947
                     0.940258151     -25.2123263      0.119075516      59.0444108     0.0299224791     -140.619782     0.0787964122      34.0097135
                    0.0787817286      34.0207201     0.0299224791     -140.619782     0.0510354052       11.119994      0.985814068     -24.1724866
                    0.0299274885     -140.640947     0.0787964123      34.0097134      0.985814068     -24.1724866      0.051069233      11.1224242
27.22                0.119574918      59.0059627      0.939759851     -25.3365699     0.0791244942      33.7469004     0.0300419242     -140.860501
                     0.939759852     -25.3365698      0.119552213      58.9809671     0.0300368286     -140.839256     0.0791393441       33.735885
                    0.0791244942      33.7469004     0.0300368286     -140.839256     0.0513296462      11.0393899      0.985729313     -24.2918936
                    0.0300419243     -140.860501     0.0791393442      33.7358849      0.985729313     -24.2918936     0.0513637239      11.0418124
27.36                0.120053624      58.9424568      0.939258527     -25.4610664       0.07946936      33.4743763     0.0301572125      -141.07926
                     0.939258527     -25.4610664      0.120030668      58.9173373       0.03015203     -141.057935     0.0794843763      33.4633529
                      0.07946936      33.4743762       0.03015203     -141.057935     0.0516244073      10.9590862      0.985642667     -24.4114839
                    0.0301572125      -141.07926     0.0794843764      33.4633528      0.985642667     -24.4114839     0.0516587344      10.9615003
27.5                 0.120534099      58.8787624      0.938754168     -25.5858163     0.0798163216      33.2031417     0.0302733557     -141.297222
                     0.938754168     -25.5858163       0.12051089      58.8535199     0.0302680857      -141.27582     0.0798315045       33.192111
                    0.0798163216      33.2031417     0.0302680857      -141.27582     0.0519196891      10.8790773      0.985554123     -24.5312577
                    0.0302733557     -141.297222     0.0798315045       33.192111      0.985554123     -24.5312577      0.051954265      10.8814826
27.64                0.121016349       58.814878      0.938246765     -25.7108199     0.0801653747      32.9331905     0.0303903563     -141.514387
                     0.938246765     -25.7108199      0.120992885      58.7895136     0.0303849983     -141.492909     0.0801807242      32.9221533
                    0.0801653747      32.9331905     0.0303849983     -141.492909      0.052215492      10.7993579      0.985463674      -24.651215
                    0.0303903563     -141.514387     0.0801807243      32.9221532      0.985463674      -24.651215     0.0522503161      10.8017537
27.78                0.121500384      58.7508022      0.937736309     -25.8360774      0.080516515      32.6645165     0.0305082168     -141.730754
                      0.93773631     -25.8360774      0.121476664      58.7253169     0.0305027702     -141.709202     0.0805320312      32.6534734
                     0.080516515      32.6645165     0.0305027702     -141.709202     0.0525118166      10.7199226      0.985371312     -24.7713558
                    0.0305082168     -141.730754     0.0805320313      32.6534734      0.985371312     -24.7713558     0.0525468884      10.7223085
27.92                0.121986212      58.6865337      0.937222791     -25.9615892     0.0808697382      32.3971133     0.0306269398     -141.946322
                     0.937222792     -25.9615891      0.121962235      58.6609286      0.030621404     -141.924697     0.0808854213      32.3860651
                    0.0808697382      32.3971132      0.030621404     -141.924697     0.0528086633      10.6407662       0.98527703     -24.8916801
                    0.0306269399     -141.946322     0.0808854214       32.386065       0.98527703     -24.8916801     0.0528439822      10.6431416
28.06                0.122473841       58.622071      0.936706203     -26.0873555     0.0812250403      32.1309744     0.0307465279     -142.161091
                     0.936706203     -26.0873554      0.122449605      58.5963471     0.0307409023     -142.139394     0.0812408903      32.1199218
                    0.0812250403      32.1309744     0.0307409023     -142.139394     0.0531060328      10.5618836      0.985180821     -25.0121879
                     0.030746528     -142.161091     0.0812408904      32.1199217      0.985180821     -25.0121879     0.0531415983       10.564248
28.2                  0.12296328      58.5574128      0.936186533     -26.2133767      0.081582417      31.8660934     0.0308669837     -142.375059
                     0.936186534     -26.2133766      0.122938784      58.5315712     0.0308612677     -142.353293      0.081598434       31.855037
                     0.081582417      31.8660934     0.0308612677     -142.353293     0.0534039255      10.4832698      0.985082676     -25.1328793
                    0.0308669837     -142.375059     0.0815984341      31.8550369      0.985082676     -25.1328793     0.0534397369      10.4856226
28.34                0.123454537      58.4925576      0.935663775      -26.339653     0.0819418644      31.6024636     0.0309883096     -142.588227
                     0.935663775      -26.339653       0.12342978      58.4665994     0.0309825027     -142.566392     0.0819580484       31.591404
                    0.0819418644      31.6024636     0.0309825027     -142.566392      0.053702342      10.4049197      0.984982589     -25.2537543
                    0.0309883097     -142.588227     0.0819580484       31.591404      0.984982589     -25.2537543     0.0537383988      10.4072605
28.48                0.123947622      58.4275041      0.935137918     -26.4661848     0.0823033783      31.3400783     0.0311105085     -142.800594
                     0.935137918     -26.4661848      0.123922601      58.4014302       0.03110461     -142.778693     0.0823197293      31.3290162
                    0.0823033783      31.3400783       0.03110461     -142.778693     0.0540012828      10.3268286      0.984880551     -25.3748128
                    0.0311105085     -142.800594     0.0823197294      31.3290161      0.984880551     -25.3748128     0.0540375844      10.3291568
28.62                0.124442542      58.3622509      0.934608954     -26.5929724     0.0826669548      31.0789307     0.0312335828     -143.012161
                     0.934608954     -26.5929724      0.124417257      58.3360623     0.0312275923     -142.990194      0.082683473      31.0678667
                    0.0826669548      31.0789307     0.0312275923     -142.990194     0.0543007485      10.2489917      0.984776557      -25.496055
                    0.0312335829     -143.012161      0.082683473      31.0678667      0.984776557      -25.496055     0.0543372943      10.2513068
28.76                0.124939306      58.2967964      0.934076873     -26.7200161       0.08303259       30.819014     0.0313575354     -143.222926
                     0.934076873      -26.720016      0.124913755      58.2704942     0.0313514522     -143.200895     0.0830492753      30.8079487
                      0.08303259       30.819014     0.0313514522     -143.200895     0.0546007396      10.1714043      0.984670598     -25.6174808
                    0.0313575354     -143.222926     0.0830492754      30.8079486      0.984670597     -25.6174808      0.054637529      10.1737058
28.9                 0.125437923      58.2311392      0.933541667     -26.8473161     0.0834002801      30.5603211     0.0314823689      -143.43289
                     0.933541667      -26.847316      0.125412105      58.2047245     0.0314761925     -143.410797     0.0834171325      30.5492551
                    0.0834002801      30.5603211     0.0314761925     -143.410796     0.0549012566      10.0940617      0.984562666     -25.7390902
                    0.0314823689      -143.43289     0.0834171326      30.5492551      0.984562666     -25.7390902      0.054938289      10.0963491
29.04                0.125938402       58.165278      0.933003327     -26.9748727     0.0837700213      30.3028452      0.031608086     -143.642052
                     0.933003327     -26.9748727      0.125912315      58.1387517     0.0316018158     -143.619898     0.0837870408      30.2917791
                    0.0837700213      30.3028452     0.0316018158     -143.619898     0.0552023002      10.0169595      0.984452755     -25.8608832
                     0.031608086     -143.642052     0.0837870409       30.291779      0.984452755     -25.8608832     0.0552395749      10.0192323
29.18                0.126440752      58.0992113      0.932461844     -27.1026863     0.0841418097      30.0465791     0.0317346895     -143.850414
                     0.932461844     -27.1026862      0.126414395      58.0725745      0.031728325       -143.8282     0.0841589963      30.0355135
                    0.0841418097      30.0465791      0.031728325       -143.8282     0.0555038708      9.94009313      0.984340857     -25.9828599
                    0.0317346895     -143.850414     0.0841589964      30.0355134      0.984340857     -25.9828599     0.0555413873      9.94235092
29.32                0.126944981      58.0329375      0.931917209     -27.2307571     0.0845156418      29.7915157     0.0318621821     -144.057974
                     0.931917209     -27.2307571      0.126918352      58.0061913     0.0318557228     -144.035703     0.0845329955      29.7804511
                    0.0845156418      29.7915157     0.0318557228     -144.035703      0.055805969      9.86345833      0.984226965     -26.1050202
                    0.0318621821     -144.057974     0.0845329956       29.780451      0.984226965     -26.1050202     0.0558437266      9.86570056
29.46                0.127451099      57.9664554      0.931369413     -27.3590854     0.0848915138      29.5376479     0.0319905667     -144.264734
                     0.931369414     -27.3590854      0.127424196      57.9396006      0.031984012     -144.242406     0.0849090346      29.5265847
                    0.0848915138      29.5376478     0.0319840121     -144.242406     0.0561085954      9.78705077      0.984111072     -26.2273641
                    0.0319905668     -144.264734     0.0849090347      29.5265847      0.984111072     -26.2273641     0.0561465935      9.78927695
29.6                 0.127959113      57.8997633      0.930818449     -27.4876715     0.0852694223      29.2849682     0.0321198462     -144.470694
                     0.930818449     -27.4876715      0.127931936      57.8728011     0.0321131955     -144.448311     0.0852871102      29.2739071
                    0.0852694223      29.2849682     0.0321131956     -144.448311     0.0564117505      9.71086621      0.983993169     -26.3498916
                    0.0321198462     -144.470694     0.0852871102      29.2739071      0.983993169     -26.3498916     0.0564499885      9.71307587
29.74                0.128469034      57.8328598      0.930264306     -27.6165157     0.0856493637      29.0334696     0.0322500233     -144.675854
                     0.930264307     -27.6165157      0.128441581      57.8057912     0.0322432762     -144.653417     0.0856672185      29.0224111
                    0.0856493637      29.0334696     0.0322432762     -144.653417     0.0567154349       9.6349005      0.983873251     -26.4726028
                    0.0322500233     -144.675854     0.0856672186       29.022411      0.983873251     -26.4726028     0.0567539122      9.63709318
29.88                 0.12898087      57.7657435      0.929706977     -27.7456183     0.0860313346      28.7831445      0.032381101     -144.880214
                     0.929706978     -27.7456183      0.128953139      57.7385695     0.0323742568     -144.857725     0.0860493563      28.7720891
                    0.0860313346      28.7831445     0.0323742569     -144.857725     0.0570196492      9.55914957      0.983751309     -26.5954976
                     0.032381101     -144.880215     0.0860493564       28.772089      0.983751308     -26.5954976     0.0570583651      9.56132479
30.02                 0.12949463      57.6984128      0.929146453     -27.8749795     0.0864153315      28.5339857     0.0325130821     -145.083776
                     0.929146453     -27.8749795       0.12946662      57.6711344     0.0325061405     -145.061236       0.08643352      28.5229338
                    0.0864153315      28.5339857     0.0325061405     -145.061236      0.057324394       9.4836094      0.983627336      -26.718576
                    0.0325130821     -145.083776     0.0864335201      28.5229337      0.983627335      -26.718576     0.0573633478      9.48576669
30.16                0.130010323      57.6308663      0.928582725     -28.0045996     0.0868013511      28.2859856     0.0326459697      -145.28654
                     0.928582726     -28.0045996      0.129982032      57.6034845       0.03263893      -145.26395     0.0868197064      28.2749378
                    0.0868013511      28.2859856       0.03263893      -145.26395     0.0576296697      9.40827604      0.983501325     -26.8418379
                    0.0326459697      -145.28654     0.0868197065      28.2749377      0.983501324     -26.8418379     0.0576688608      9.41041495
30.3                 0.130527959      57.5631024      0.928015785     -28.1344789     0.0871893902      28.0391369     0.0327797667     -145.488506
                     0.928015786     -28.1344789      0.130499386      57.5356182     0.0327726284     -145.465868     0.0872079122      28.0280935
                    0.0871893902      28.0391368     0.0327726284     -145.465868     0.0579354771      9.33314561      0.983373268     -26.9652835
                    0.0327797667     -145.488506     0.0872079123      28.0280935      0.983373268     -26.9652835     0.0579749048      9.33526569
30.44                0.131047546      57.4951196      0.927445625     -28.2646177     0.0875794455      27.7934319     0.0329144761     -145.689676
                     0.927445625     -28.2646177      0.131018689      57.4675341     0.0329072388     -145.666991      0.087598134      27.7823935
                    0.0875794454      27.7934319     0.0329072388     -145.666991     0.0582418166       9.2582143      0.983243159     -27.0889126
                    0.0329144761     -145.689676     0.0875981341      27.7823934      0.983243159     -27.0889126     0.0582814803      9.26031509
30.58                0.131569094      57.4269165      0.926872236     -28.3950163     0.0879715138      27.5488631      0.033050101      -145.89005
                     0.926872236     -28.3950162      0.131539951      57.3992306     0.0330427641      -145.86732     0.0879903688      27.5378301
                    0.0879715138      27.5488631     0.0330427641      -145.86732     0.0585486889      9.18347834       0.98311099     -27.2127252
                     0.033050101      -145.89005     0.0879903689      27.5378301       0.98311099     -27.2127252     0.0585885878      9.18555941
30.72                0.132092612      57.3584914      0.926295609     -28.5256748     0.0883655921       27.305423     0.0331866444      -146.08963
                      0.92629561     -28.5256748      0.132063182      57.3307063     0.0331792074     -146.066855     0.0883846135      27.2943959
                    0.0883655921       27.305423     0.0331792074     -146.066855     0.0588560946      9.10893405      0.982976755     -27.3367213
                    0.0331866444      -146.08963     0.0883846136      27.2943958      0.982976754     -27.3367213     0.0588962281      9.11099496
30.86                0.132618109      57.2898429      0.925715737     -28.6565936     0.0887616772       27.063104     0.0333241095     -146.288415
                     0.925715738     -28.6565936      0.132588391      57.2619594     0.0333165718     -146.265598     0.0887808649      27.0520831
                    0.0887616772      27.0631039     0.0333165718     -146.265598     0.0591640341       9.0345778      0.982840445     -27.4609009
                    0.0333241095     -146.288415      0.088780865       27.052083      0.982840444     -27.4609009     0.0592044015       9.0366181
31                   0.133145594      57.2209694      0.925132611      -28.787773     0.0891597663      26.8218983     0.0334624993     -146.486408
                     0.925132612     -28.7877729      0.133115586      57.1929886     0.0334548605     -146.463549     0.0891791201      26.8108841
                    0.0891597663      26.8218983     0.0334548606     -146.463549     0.0594725082        8.960406      0.982702053      -27.585264
                    0.0334624993     -146.486408     0.0891791202       26.810884      0.982702053      -27.585264     0.0595131088      8.96242527
31.14                0.133675078      57.1518693      0.924546224     -28.9192131     0.0895598564      26.5817984     0.0336018171      -146.68361
                     0.924546224     -28.9192131      0.133644778      57.1237923     0.0335940767     -146.660711     0.0895793761      26.5707912
                    0.0895598564      26.5817984     0.0335940767     -146.660711     0.0597815174      8.88641515      0.982561573     -27.7098105
                    0.0336018171      -146.68361     0.0895793762      26.5707911      0.982561573     -27.7098105     0.0598223504      8.88841296
31.28                0.134206569      57.0825412      0.923956566     -29.0509144     0.0899619447      26.3427965      0.033742066     -146.880022
                     0.923956567     -29.0509143      0.134175976      57.0543688     0.0337342235     -146.857083     0.0899816301      26.3317968
                    0.0899619447      26.3427965     0.0337342236     -146.857083     0.0600910622      8.81260179      0.982418997     -27.8345403
                    0.0337420661     -146.880022     0.0899816302      26.3317967      0.982418997     -27.8345403     0.0601321271      8.81457772
31.42                0.134740076      57.0129834       0.92336363     -29.1828769     0.0903660282       26.104885     0.0338832494     -147.075644
                     0.923363631     -29.1828769      0.134709188      56.9847167     0.0338753043     -147.052668     0.0903858793      26.0938931
                    0.0903660282       26.104885     0.0338753043     -147.052668     0.0604011433       8.7389625      0.982274319     -27.9594536
                    0.0338832494     -147.075644     0.0903858794       26.093893      0.982274319     -27.9594536     0.0604424393      8.74091613
31.56                 0.13527561      56.9431943      0.922767409      -29.315101     0.0907721043      25.8680561     0.0340253704     -147.270479
                     0.922767409      -29.315101      0.135244425      56.9148344     0.0340173222     -147.247467     0.0907921209      25.8570723
                    0.0907721043      25.8680561     0.0340173222     -147.247467     0.0607117613      8.66549394       0.98212753     -28.0845501
                    0.0340253704     -147.270479      0.090792121      25.8570723       0.98212753     -28.0845501     0.0607532876      8.66742486
31.7                 0.135813179      56.8731725      0.922167893      -29.447587     0.0911801704      25.6323021     0.0341684323     -147.464528
                     0.922167893      -29.447587      0.135781697      56.8447203     0.0341602806      -147.44148     0.0912003522      25.6213269
                    0.0911801703      25.6323021     0.0341602806      -147.44148     0.0610229168      8.59219281      0.981978625     -28.2098299
                    0.0341684323     -147.464528     0.0912003523      25.6213268      0.981978625     -28.2098299     0.0610646727      8.59410061
31.84                0.136352794      56.8029162      0.921565075     -29.5803351     0.0915902236      25.3976152     0.0343124386     -147.657792
                     0.921565076     -29.5803351      0.136321012      56.7743727     0.0343041828      -147.63471     0.0916105705      25.3866489
                    0.0915902236      25.3976152     0.0343041828      -147.63471     0.0613346103      8.51905587      0.981827595      -28.335293
                    0.0343124386     -147.657792     0.0916105707      25.3866489      0.981827595      -28.335293     0.0613765951      8.52094014
31.98                0.136894463       56.732424      0.920958948     -29.7133455     0.0920022616      25.1639878     0.0344573925     -147.850273
                     0.920958948     -29.7133455       0.13686238      56.7037902     0.0344490322     -147.827158     0.0920227734      25.1530307
                    0.0920022616      25.1639877     0.0344490322     -147.827158     0.0616468425      8.44607992      0.981674435     -28.4609392
                    0.0344573926     -147.850273     0.0920227735      25.1530306      0.981674435     -28.4609392     0.0616890555      8.44794026
32.12                0.137438197      56.6616941      0.920349503     -29.8466185     0.0924162818      24.9314119     0.0346032976     -148.041972
                     0.920349503     -29.8466185      0.137405811       56.632971     0.0345948323     -148.018826     0.0924369583      24.9204644
                    0.0924162817      24.9314119     0.0345948323     -148.018826     0.0619596139      8.37326182      0.981519136     -28.5867686
                    0.0346032976     -148.041972     0.0924369584      24.9204643      0.981519136     -28.5867686     0.0620020543      8.37509783
32.26                0.137984006       56.590725      0.919736733     -29.9801543     0.0928322816      24.6998799     0.0347501572     -148.232891
                     0.919736733     -29.9801543      0.137951315      56.5619136     0.0347415864     -148.209715     0.0928531226      24.6889422
                    0.0928322816      24.6998799     0.0347415865     -148.209715     0.0622729252      8.30059846      0.981361692      -28.712781
                    0.0347501572     -148.232891     0.0928531227      24.6889422      0.981361692      -28.712781     0.0623155923      8.30240975
32.4                 0.138531898      56.5195151       0.91912063     -30.1139533     0.0932502589      24.4693839     0.0348979749     -148.423032
                      0.91912063     -30.1139532        0.1384989      56.4906164     0.0348892982     -148.399827     0.0932712641      24.4584565
                    0.0932502589      24.4693839     0.0348892982     -148.399827      0.062586777      8.22808681      0.981202096     -28.8389765
                    0.0348979749     -148.423032     0.0932712642      24.4584564      0.981202096     -28.8389765     0.0626296699      8.22987298
32.54                0.139081883      56.4480626      0.918501186     -30.2480155     0.0936702111      24.2399163     0.0350467541     -148.612397
                     0.918501187     -30.2480155      0.139048578      56.4190777      0.035037971     -148.589164     0.0936913804      24.2289993
                    0.0936702111      24.2399162     0.0350379711     -148.589164     0.0629011698      8.15572385       0.98104034      -28.965355
                    0.0350467542     -148.612397     0.0936913805      24.2289992       0.98104034      -28.965355     0.0629442878      8.15748453
32.68                0.139633972      56.3763661      0.917878395     -30.3823413     0.0940921361      24.0114691     0.0351964985     -148.800986
                     0.917878396     -30.3823413      0.139600358      56.3472958     0.0351876086     -148.777727     0.0941134691      24.0005629
                    0.0940921361      24.0114691     0.0351876086     -148.777727     0.0632161043      8.08350663      0.980876419     -29.0919164
                    0.0351964986     -148.800986     0.0941134693      24.0005628      0.980876419     -29.0919164     0.0632594466      8.08524144
32.82                0.140188175      56.3044238      0.917252248      -30.516931     0.0945160316      23.7840346     0.0353472117     -148.988803
                     0.917252249     -30.5169309      0.140154249      56.2752692     0.0353382144     -148.965518     0.0945375282      23.7731395
                    0.0945160316      23.7840346     0.0353382144     -148.965518      0.063531581      8.01143225      0.980710325     -29.2186606
                    0.0353472117     -148.988803     0.0945375283      23.7731394      0.980710324     -29.2186606     0.0635751469       8.0131408
32.96                  0.1407445      56.2322341      0.916622739     -30.6517846     0.0949418955      23.5576051     0.0354988972     -149.175849
                     0.916622739     -30.6517846      0.140710261      56.2029962     0.0354897922      -149.15254     0.0949635554      23.5467213
                    0.0949418955      23.5576051     0.0354897922      -149.15254     0.0638476006      7.93949782       0.98054205     -29.3455876
                    0.0354988973     -149.175849     0.0949635555      23.5467212       0.98054205     -29.3455876     0.0638913893      7.94117975
33.1                 0.141302958      56.1597953      0.915989859     -30.7869026     0.0953697257      23.3321727     0.0356515588     -149.362126
                      0.91598986     -30.7869025      0.141268405      56.1304751     0.0356423456     -149.338793     0.0953915485      23.3213005
                    0.0953697257      23.3321727     0.0356423456     -149.338793     0.0641641636      7.86770054      0.980371589     -29.4726974
                    0.0356515589     -149.362126     0.0953915487      23.3213004      0.980371589     -29.4726974     0.0642081743      7.86935547
33.24                 0.14186356      56.0871057      0.915353602      -30.922285     0.0957995201      23.1077298     0.0358052003     -149.547636
                     0.915353603      -30.922285       0.14182869      56.0577042     0.0357958784     -149.524281     0.0958215057      23.0968694
                    0.0957995201      23.1077297     0.0357958784     -149.524281     0.0644812707      7.79603761      0.980198935     -29.5999898
                    0.0358052003     -149.547636     0.0958215058      23.0968693      0.980198935     -29.5999898     0.0645255026      7.79766518
33.38                0.142426314      56.0141637      0.914713961     -31.0579322     0.0962312768      22.8842684     0.0359598253     -149.732381
                     0.914713961     -31.0579322      0.142391127      55.9846818     0.0359503944     -149.709005     0.0962534248      22.8734201
                    0.0962312768      22.8842684     0.0359503944     -149.709005     0.0647989225      7.72450629       0.98002408     -29.7274648
                    0.0359598253     -149.732381     0.0962534249        22.87342       0.98002408     -29.7274648     0.0648433748      7.72610614
33.52                0.142991231      55.9409675      0.914070928     -31.1938444     0.0966649938      22.6617809     0.0361154377     -149.916363
                     0.914070928     -31.1938444      0.142955725      55.9114063     0.0361058972     -149.892967      0.096687304      22.6509449
                    0.0966649938      22.6617809     0.0361058973     -149.892967     0.0651171196       7.6531039      0.979847018     -29.8551222
                    0.0361154378     -149.916363     0.0966873041      22.6509449      0.979847018     -29.8551222     0.0651617915      7.65467567
33.66                0.143558321      55.8675155      0.913424496     -31.3300218     0.0971006692      22.4402595     0.0362720414     -150.099585
                     0.913424496     -31.3300217      0.143522494       55.837876     0.0362623909      -150.07617     0.0971231413      22.4294361
                    0.0971006692      22.4402595      0.036262391      -150.07617     0.0654358626      7.58182776      0.979667742     -29.9829622
                    0.0362720414     -150.099585     0.0971231414      22.4294361      0.979667742     -29.9829622     0.0654807532      7.58337109
33.8                 0.144127595       55.793806      0.912774658     -31.4664646     0.0975383014      22.2196965     0.0364296402     -150.282048
                     0.912774659     -31.4664645      0.144091444      55.7640891     0.0364198794     -150.258615      0.097560935      22.2088859
                    0.0975383014      22.2196965     0.0364198794     -150.258615      0.065755152      7.51067525      0.979486245     -30.1109844
                    0.0364296402     -150.282048     0.0975609351      22.2088859      0.979486245     -30.1109844     0.0658002605       7.5121898
33.94                0.144699061      55.7198372      0.912121408      -31.603173     0.0979778884      22.0000842     0.0365882381     -150.463755
                     0.912121408      -31.603173      0.144662586      55.6900439     0.0365783664     -150.440305     0.0980006833      21.9892866
                    0.0979778884      22.0000841     0.0365783664     -150.440305     0.0660749886       7.4396438      0.979302521      -30.239189
                    0.0365882381     -150.463755     0.0980006834      21.9892866      0.979302521      -30.239189     0.0661203141      7.44112922
34.08                0.145272731      55.6456074      0.911464739     -31.7401473     0.0984194287      21.7814148      0.036747839     -150.644707
                     0.911464739     -31.7401472      0.145235929      55.6157388     0.0367378561     -150.621242     0.0984423845      21.7706305
                    0.0984194287      21.7814148     0.0367378561     -150.621242     0.0663953728      7.36873085      0.979116563     -30.3675757
                     0.036747839     -150.644707     0.0984423847      21.7706304      0.979116563     -30.3675757     0.0664409146      7.37018679
34.22                0.145848615      55.5711149      0.910804643     -31.8773876     0.0988629206      21.5636807      0.036908447     -150.824908
                     0.910804643     -31.8773876      0.145811485      55.5411718     0.0368983525     -150.801429      0.098886037      21.5529098
                    0.0988629206      21.5636806     0.0368983525     -150.801429     0.0667163054       7.2979339      0.978928364     -30.4961445
                    0.0369084471     -150.824908     0.0988860371      21.5529097      0.978928364     -30.4961445     0.0667620626      7.29936003
34.36                0.146426723      55.4963578      0.910141114     -32.0148943     0.0993083625      21.3468742     0.0370700662      -151.00436
                     0.910141115     -32.0148943      0.146389263      55.4663414     0.0370598596     -150.980867     0.0993316391      21.3361169
                    0.0993083625      21.3468741     0.0370598596     -150.980867     0.0670377869      7.22725047      0.978737917     -30.6248953
                    0.0370700663      -151.00436     0.0993316392      21.3361168      0.978737917     -30.6248953     0.0670837585      7.22864646
34.5                 0.147007064      55.4213346      0.909474147     -32.1526675     0.0997557528      21.1309875     0.0372327007     -151.183065
                     0.909474147     -32.1526674      0.146969273      55.3912458     0.0372223816     -151.159559     0.0997791894      21.1202441
                    0.0997557528      21.1309875     0.0372223816     -151.159559     0.0673598179      7.15667813      0.978545217     -30.7538281
                    0.0372327008     -151.183065     0.0997791895       21.120244      0.978545217     -30.7538281     0.0674060032      7.15804364
34.64                 0.14758965      55.3460433      0.908803733     -32.2907074       0.10020509      20.9160132     0.0373963547     -151.361025
                     0.908803733     -32.2907073      0.147551526      55.3158831     0.0373859227     -151.337508      0.100228686      20.9052837
                      0.10020509      20.9160132     0.0373859227     -151.337508      0.067682399      7.08621448      0.978350256     -30.8829426
                    0.0373963547     -151.361025      0.100228686      20.9052837      0.978350256     -30.8829426     0.0677287971      7.08754919
34.78                0.148174491      55.2704823      0.908129867     -32.4290142      0.100656373      20.7019435     0.0375610323     -151.538243
                     0.908129867     -32.4290141      0.148136031      55.2402516     0.0375504869     -151.514715      0.100680128      20.6912283
                     0.100656373      20.7019435      0.037550487     -151.514715     0.0680055308      7.01585714      0.978153028     -31.0122389
                    0.0375610323     -151.538243      0.100680129      20.6912282      0.978153028     -31.0122389     0.0680521408      7.01716072
34.92                0.148761598      55.1946496      0.907452542     -32.5675881        0.1011096      20.4887709     0.0377267378     -151.714721
                     0.907452542     -32.5675881      0.148722801      55.1643496     0.0377160788     -151.691184      0.101133514        20.47807
                       0.1011096      20.4887709     0.0377160788     -151.691184      0.068329214      6.94560379      0.977953526     -31.1417168
                    0.0377267378     -151.714721      0.101133515      20.4780699      0.977953526     -31.1417168      0.068376035      6.94687592
35.06                0.149350979      55.1185437      0.906771752     -32.7064294      0.101564771      20.2764878     0.0378934756     -151.890463
                     0.906771752     -32.7064294      0.149311844      55.0881751     0.0378827024     -151.866917      0.101588843      20.2658014
                      0.10156477      20.2764878     0.0378827024     -151.866917     0.0686534491      6.87545211      0.977751745     -31.2713761
                    0.0378934756     -151.890463      0.101588843      20.2658013      0.977751744     -31.2713761     0.0687004802      6.87669247
35.2                 0.149942647      55.0421625      0.906087491     -32.8455382      0.102021882      20.0650866     0.0380612499     -152.065469
                     0.906087491     -32.8455382      0.149903171      55.0117266     0.0380503622     -152.041916      0.102046113      20.0544149
                     0.102021882      20.0650865     0.0380503622     -152.041916     0.0689782368      6.80539985      0.977547676     -31.4012169
                    0.0380612499     -152.065469      0.102046113      20.0544148      0.977547676     -31.4012169     0.0690254771      6.80660813
35.34                0.150536612      54.9655044      0.905399752     -32.9849148      0.102480935      19.8545598     0.0382300652     -152.239744
                     0.905399753     -32.9849148      0.150496794       54.935002     0.0382190627     -152.216185      0.102505323      19.8439029
                     0.102480935      19.8545597     0.0382190627     -152.216185     0.0693035776      6.73544476      0.977341315      -31.531239
                    0.0382300653     -152.239744      0.102505323      19.8439028      0.977341315      -31.531239     0.0693510262      6.73662064
35.48                0.151132884      54.8885674       0.90470853     -33.1245593      0.102941926      19.6448998      0.038399926      -152.41329
                     0.904708531     -33.1245593      0.151092722      54.8579996     0.0383888081     -152.389725      0.102966472      19.6342579
                     0.102941926      19.6448998     0.0383888082     -152.389725     0.0696294722      6.66558463      0.977132654     -31.6614423
                     0.038399926      -152.41329      0.102966472      19.6342579      0.977132654     -31.6614423     0.0696771282      6.66672782
35.62                0.151731473      54.8113499      0.904013819     -33.2644719      0.103404856      19.4360993     0.0385708367     -152.586109
                      0.90401382     -33.2644719      0.151690965      54.7807175     0.0385596032     -152.562539      0.103429559      19.4254725
                     0.103404856      19.4360993     0.0385596032     -152.562539     0.0699559211      6.59581729      0.976921688     -31.7918266
                    0.0385708368     -152.586109      0.103429559      19.4254724      0.976921688     -31.7918266     0.0700037835      6.59692747
35.76                0.152332391      54.7338498      0.903315613     -33.4046529      0.103869724      19.2281507      0.038742802     -152.758205
                     0.903315614     -33.4046529      0.152291535      54.7031539     0.0387314524     -152.734631      0.103894582      19.2175391
                     0.103869723      19.2281507     0.0387314524     -152.734631      0.070282925      6.52614058       0.97670841     -31.9223918
                     0.038742802     -152.758205      0.103894583      19.2175391       0.97670841     -31.9223918     0.0703309929      6.52721747
35.9                 0.152935647      54.6560654      0.902613906     -33.5451024      0.104336527      19.0210466     0.0389158263     -152.929579
                     0.902613906     -33.5451024      0.152894443       54.625307     0.0389043603     -152.906002      0.104361542      19.0104504
                     0.104336527      19.0210466     0.0389043603     -152.906002     0.0706104844       6.4565524      0.976492813     -32.0531379
                    0.0389158264     -152.929579      0.104361542      19.0104504      0.976492813     -32.0531379     0.0706587569      6.45759569
36.04                0.153541253      54.5779948      0.901908692     -33.6858206      0.104805266      18.8147796     0.0390899145     -153.100234
                     0.901908693     -33.6858206      0.153499698      54.5471749     0.0390783316     -153.076656      0.104830436       18.804199
                     0.104805266      18.8147796     0.0390783316     -153.076656        0.0709386      6.38705065      0.976274892     -32.1840647
                    0.0390899145     -153.100234      0.104830436      18.8041989      0.976274892     -32.1840647     0.0709870761      6.38806005
36.18                 0.15414922      54.4996361      0.901199966     -33.8268077      0.105275939      18.6093424     0.0392650711     -153.270174
                     0.901199967     -33.8268077      0.154107311      54.4687557      0.039253371     -153.246595      0.105301265      18.5987773
                     0.105275939      18.6093423      0.039253371     -153.246595     0.0712672723      6.31763327      0.976054641     -32.3151721
                    0.0392650711     -153.270174      0.105301265      18.5987773       0.97605464     -32.3151721     0.0713159511      6.31860849
36.32                0.154759557      54.4209874      0.900487723     -33.9680639      0.105748546      18.4047275     0.0394413009     -153.439401
                     0.900487723     -33.9680639      0.154717294      54.3900475     0.0394294833     -153.415822      0.105774026      18.3941782
                     0.105748546      18.4047275     0.0394294833     -153.415822      0.071596502      6.24829822      0.975832052     -32.4464599
                     0.039441301     -153.439401      0.105774026      18.3941781      0.975832052     -32.4464599     0.0716453824      6.24923897
36.46                0.155372276      54.3420468      0.899771956     -34.1095894      0.106223085      18.2009277     0.0396186089     -153.607918
                     0.899771956     -34.1095893      0.155329657      54.3110484     0.0396066733     -153.584339       0.10624872      18.1903942
                     0.106223085      18.2009276     0.0396066733     -153.584339     0.0719262896      6.17904351       0.97560712      -32.577928
                    0.0396186089     -153.607918       0.10624872      18.1903941       0.97560712      -32.577928     0.0719753708      6.17994951
36.6                 0.155987388      54.2628125      0.899052661     -34.2513843      0.106699557      17.9979357     0.0397969998     -153.775728
                     0.899052661     -34.2513842       0.15594441      54.2317566     0.0397849459     -153.752151      0.106725345      17.9874181
                     0.106699557      17.9979356     0.0397849459     -153.752151     0.0722566358      6.10986715      0.975379839     -32.7095763
                    0.0397969998     -153.775728      0.106725346      17.9874181      0.975379839     -32.7095763     0.0723059167      6.11073812
36.74                0.156604904      54.1832825      0.898329832     -34.3934488       0.10717796      17.7957441     0.0399764785     -153.942834
                     0.898329832     -34.3934488      0.156561565        54.15217      0.039964306     -153.919259      0.107203902      17.7852427
                      0.10717796      17.7957441      0.039964306     -153.919259     0.0725875411      6.04076718      0.975150203     -32.8414047
                    0.0399764785     -153.942834      0.107203902      17.7852426      0.975150203     -32.8414047     0.0726370207      6.04160285
36.88                0.157224833      54.1034549      0.897603464     -34.5357831      0.107658294      17.5943459     0.0401570501     -154.109238
                     0.897603464     -34.5357831      0.157181133      54.0722869     0.0401447585     -154.085666      0.107684389      17.5838606
                     0.107658294      17.5943459     0.0401447586     -154.085666     0.0729190061      5.97174168      0.974918206     -32.9734129
                    0.0401570502     -154.109238      0.107684389      17.5838605      0.974918205     -32.9734129     0.0729686835      5.97254177
37.02                0.157847188      54.0233277      0.896873553     -34.6783874      0.108140559      17.3937338     0.0403387196     -154.274944
                     0.896873553     -34.6783874      0.157803123      53.9921051     0.0403263087     -154.251376      0.108166806      17.3832647
                     0.108140559      17.3937337     0.0403263087     -154.251376     0.0732510315      5.90278876      0.974683841     -33.1056009
                    0.0403387197     -154.274944      0.108166806      17.3832646      0.974683841     -33.1056009     0.0733009056        5.903553
37.16                0.158471978      53.9428991      0.896140092     -34.8212619      0.108624753      17.1939006     0.0405214921     -154.439954
                     0.896140093     -34.8212619      0.158427548      53.9116229     0.0405089614     -154.416391      0.108651151      17.1834478
                     0.108624753      17.1939005     0.0405089615     -154.416391     0.0735836178      5.83390651      0.974447103     -33.2379685
                    0.0405214921     -154.439954      0.108651152      17.1834477      0.974447103     -33.2379685     0.0736336876      5.83463464
37.3                 0.159099216      53.8621669      0.895403078     -34.9644067      0.109110876      16.9948392     0.0407053728     -154.604271
                     0.895403079     -34.9644066      0.159054419      53.8308382      0.040692722     -154.580715      0.109137426      16.9844028
                     0.109110876      16.9948391      0.040692722     -154.580715     0.0739167656      5.76509311      0.974207986     -33.3705156
                    0.0407053728     -154.604271      0.109137426      16.9844027      0.974207986     -33.3705156     0.0739670301      5.76578486
37.44                0.159728912      53.7811293      0.894662506     -35.1078219      0.109598928      16.7965425     0.0408903668     -154.767899
                     0.894662506     -35.1078219      0.159683745       53.749749     0.0408775956     -154.744349      0.109625629      16.7861226
                     0.109598928      16.7965424     0.0408775956     -154.744349     0.0742504754      5.69634671      0.973966484      -33.503242
                    0.0408903668     -154.767899      0.109625629      16.7861225      0.973966484     -33.5032419     0.0743009336      5.69700182
37.58                0.160361076      53.6997843      0.893918371     -35.2515078      0.110088909      16.5990035     0.0410764794     -154.930841
                     0.893918371     -35.2515078      0.160315538      53.6683534     0.0410635875     -154.907298       0.11011576      16.5886001
                     0.110088909      16.5990034     0.0410635875     -154.907298      0.074584748      5.62766551      0.973722591     -33.6361475
                    0.0410764794     -154.930841       0.11011576         16.5886      0.973722591     -33.6361475     0.0746353988      5.62828373
37.72                0.160995721      53.6181299      0.893170668     -35.3954646      0.110580817       16.402215      0.041263716     -155.093099
                     0.893170668     -35.3954645       0.16094981      53.5866494      0.041250703     -155.069564      0.110607818      16.3918283
                     0.110580817       16.402215      0.041250703     -155.069564     0.0749195838      5.55904773      0.973476302      -33.769232
                     0.041263716     -155.093099      0.110607818      16.3918282      0.973476302      -33.769232     0.0749704262       5.5596288
37.86                0.161632857      53.5361641      0.892419393     -35.5396923      0.111074654      16.2061702     0.0414520819     -155.254676
                     0.892419393     -35.5396923      0.161586571       53.504635     0.0414389475      -155.23115      0.111101804      16.1958002
                     0.111074654      16.2061702     0.0414389475      -155.23115     0.0752549835      5.49049161      0.973227611     -33.9024954
                     0.041452082     -155.254676      0.111101804      16.1958001       0.97322761     -33.9024954     0.0753060164      5.49103527
38                   0.162272495      53.4538848      0.891664542     -35.6841911      0.111570418      16.0108621     0.0416415827     -155.415576
                     0.891664542     -35.6841911      0.162225832      53.4223081     0.0416283265      -155.39206      0.111597717      16.0005088
                     0.111570418       16.010862     0.0416283265      -155.39206     0.0755909476      5.42199541      0.972976511     -34.0359374
                    0.0416415827     -155.415576      0.111597717      16.0005087      0.972976511     -34.0359374     0.0756421699      5.42250142
38.14                0.162914646      53.3712901       0.89090611     -35.8289613      0.112068109      15.8162837     0.0418322238     -155.575801
                      0.89090611     -35.8289613      0.162867604      53.3396668     0.0418188454     -155.552296      0.112095556      15.8059472
                     0.112068109      15.8162836     0.0418188455     -155.552296     0.0759274767      5.35355741      0.972722997     -34.1695579
                    0.0418322238     -155.575801      0.112095556      15.8059471      0.972722997     -34.1695579     0.0759788874      5.35402553
38.28                0.163559321      53.2883779      0.890144093     -35.9740029      0.112567728      15.6224281     0.0420240107     -155.735355
                     0.890144094     -35.9740029      0.163511899       53.256709       0.04201051     -155.711861      0.112595322      15.6121085
                     0.112567728       15.622428       0.04201051     -155.711861     0.0762645714      5.28517592      0.972467065     -34.3033568
                    0.0420240108     -155.735355      0.112595322      15.6121084      0.972467065     -34.3033568     0.0763161694       5.2856059
38.42                0.164206532      53.2051461      0.889378488     -36.1193161      0.113069274      15.4292885     0.0422169493     -155.894241
                     0.889378488     -36.1193161      0.164158728      53.1734326     0.0422033258     -155.870759      0.113097015      15.4189858
                     0.113069274      15.4292884     0.0422033258     -155.870759     0.0766022322      5.21684926      0.972208707     -34.4373338
                    0.0422169493     -155.894241      0.113097015      15.4189857      0.972208707     -34.4373338     0.0766540164      5.21724087
38.56                 0.16485629      53.1215927       0.88860929      -36.264901      0.113572747      15.2368581      0.042411045     -156.052462
                     0.888609291      -36.264901      0.164808101      53.0898357     0.0423972984     -156.028992      0.113600634      15.2265723
                     0.113572747       15.236858     0.0423972985     -156.028992     0.0769404598      5.14857579      0.971947919     -34.5714889
                     0.042411045     -156.052462      0.113600635      15.2265723      0.971947919     -34.5714889     0.0769924291      5.14892879
38.7                 0.165508606      53.0377157      0.887836496     -36.4107579      0.114078146        15.04513     0.0426063037     -156.210021
                     0.887836496     -36.4107579      0.165460031       53.005916     0.0425924338     -156.186565       0.11410618      15.0348613
                     0.114078146        15.04513     0.0425924338     -156.186565     0.0772792547      5.08035387      0.971684695     -34.7058217
                    0.0426063038     -156.210021       0.11410618      15.0348612      0.971684695     -34.7058217      0.077331408      5.08066803
38.84                0.166163491      52.9535129      0.887060101     -36.5568868      0.114585474      14.8540976     0.0428027313     -156.366921
                     0.887060102     -36.5568868      0.166114528      52.9216716     0.0427887377     -156.343479      0.114613653      14.8438459
                     0.114585473      14.8540976     0.0427887377     -156.343479     0.0776186175      5.01218188       0.97141903     -34.8403322
                    0.0428027314     -156.366921      0.114613653      14.8438459       0.97141903     -34.8403322     0.0776709536      5.01245698
38.98                0.166820956      52.8689822      0.886280103     -36.7032879      0.115094728      14.6637541     0.0430003336     -156.523165
                     0.886280103     -36.7032879      0.166771603      52.8371004      0.042986216     -156.499738      0.115123051      14.6535195
                     0.115094728      14.6637541      0.042986216     -156.499738     0.0779585487      4.94405825      0.971150918     -34.9750201
                    0.0430003337     -156.523165      0.115123052      14.6535195      0.971150917     -34.9750201     0.0780110666      4.94429404
39.12                0.167481013      52.7841216      0.885496497     -36.8499614      0.115605909      14.4740929     0.0431991166     -156.678757
                     0.885496497     -36.8499614      0.167431268      52.7522002     0.0431848747     -156.655346      0.115634377      14.4638754
                     0.115605909      14.4740928     0.0431848747     -156.655346      0.078299049      4.87598139      0.970880353     -35.1098853
                    0.0431991167     -156.678757      0.115634377      14.4638754      0.970880353     -35.1098853     0.0783517474      4.87617766
39.26                0.168143672      52.6989289      0.884709281     -36.9969073      0.116119018      14.2851073     0.0433990864       -156.8337
                     0.884709281     -36.9969073      0.168093534      52.6669689     0.0433847198     -156.810304      0.116147629       14.274907
                     0.116119018      14.2851072     0.0433847199     -156.810304     0.0786401188      4.80794975      0.970607332     -35.2449275
                    0.0433990864       -156.8337       0.11614763      14.2749069      0.970607332     -35.2449275     0.0786929967      4.80810628
39.4                 0.168808946       52.613402      0.883918451     -37.1441258      0.116634055      14.0967907     0.0436002489     -156.987996
                     0.883918451     -37.1441258      0.168758413      52.5814044     0.0435857575     -156.964618      0.116662809      14.0866075
                     0.116634055      14.0967906     0.0435857575     -156.964618     0.0789817587      4.73996179      0.970331848     -35.3801466
                     0.043600249     -156.987996      0.116662809      14.0866075      0.970331847     -35.3801466      0.079034815      4.74007836
39.54                0.169476846      52.5275387      0.883124003     -37.2916172      0.117151019      13.9091365     0.0438026105      -157.14165
                     0.883124004     -37.2916171      0.169425915      52.4955045     0.0437879938     -157.118289      0.117179915      13.8989706
                     0.117151019      13.9091364     0.0437879938     -157.118289     0.0793239694        4.672016      0.970053895     -35.5155425
                    0.0438026105      -157.14165      0.117179916      13.8989705      0.970053895     -35.5155424     0.0793772028       4.6720924
39.68                0.170147383      52.4413369      0.882325936     -37.4393813      0.117669912      13.7221382     0.0440061772     -157.294664
                     0.882325937     -37.4393813      0.170096052      52.4092672     0.0439914351     -157.271321       0.11769895      13.7119896
                     0.117669912      13.7221382     0.0439914351     -157.271321     0.0796667513      4.60411088       0.96977347     -35.6511147
                    0.0440061773     -157.294664       0.11769895      13.7119895       0.96977347     -35.6511147     0.0797201606      4.60414689
39.82                0.170820568      52.3547944      0.881524246     -37.5874186      0.118190733      13.5357894     0.0442109555     -157.447041
                     0.881524246     -37.5874185      0.170768836      52.3226902     0.0441960876     -157.423718      0.118219912       13.525658
                     0.118190733      13.5357894     0.0441960876     -157.423718      0.080010105      4.53624495      0.969490567     -35.7868633
                    0.0442109556     -157.447041      0.118219912      13.5256579      0.969490567     -35.7868633     0.0800636891      4.53624037
39.96                0.171496412      52.2679091       0.88071893     -37.7357289      0.118713483      13.3500836     0.0444169517     -157.598786
                      0.88071893     -37.7357289      0.171444277      52.2357713     0.0444019577     -157.575482      0.118742802      13.3399694
                     0.118713483      13.3500835     0.0444019577     -157.575482     0.0803540311      4.46841674      0.969205181      -35.922788
                    0.0444169518     -157.598786      0.118742802      13.3399694       0.96920518      -35.922788     0.0804077888      4.46837136
40.1                 0.172174928      52.1806787      0.879909986     -37.8843126      0.119238162      13.1650143     0.0446241723       -157.7499
                     0.879909986     -37.8843126      0.172122388      52.1485084     0.0446090519     -157.726616      0.119267621      13.1549174
                     0.119238162      13.1650142      0.044609052     -157.726616     0.0806985301      4.40062481      0.968917306     -36.0588885
                    0.0446241723       -157.7499      0.119267621      13.1549174      0.968917306     -36.0588885     0.0807524602      4.40053843
40.24                0.172856126      52.0931011       0.87909741     -38.0331696      0.119764771      12.9805752     0.0448326237     -157.900388
                     0.879097411     -38.0331696      0.172803179      52.0608993     0.0448173767     -157.877124      0.119794369      12.9704956
                     0.119764771      12.9805751     0.0448173768     -157.877124     0.0810436026      4.33286774      0.968626938     -36.1951647
                    0.0448326238     -157.900388      0.119794369      12.9704956      0.968626938     -36.1951647     0.0810977038      4.33274015
40.38                0.173540017      52.0051741      0.878281201     -38.1823002       0.12029331      12.7967599     0.0450423126     -158.050252
                     0.878281202     -38.1823002      0.173486662      51.9729418     0.0450269387      -158.02701      0.120323046      12.7866977
                      0.12029331      12.7967599     0.0450269388      -158.02701     0.0813892491      4.26514409      0.968334072     -36.3316164
                    0.0450423127     -158.050252      0.120323046      12.7866976      0.968334072     -36.3316164     0.0814435203      4.26497511
40.52                0.174226615      51.9168953      0.877461357     -38.3317045       0.12082378      12.6135622     0.0452532457     -158.199496
                     0.877461357     -38.3317044      0.174172849      51.8846335     0.0452377446     -158.176276      0.120853654      12.6035173
                      0.12082378      12.6135621     0.0452377446     -158.176276     0.0817354701       4.1974525      0.968038704     -36.4682433
                    0.0452532457     -158.199496      0.120853654      12.6035172      0.968038703     -36.4682433       0.08178991      4.19724191
40.66                0.174915928      51.8282626      0.876637874     -38.4813825      0.121356181      12.4309758     0.0454654296     -158.348123
                     0.876637874     -38.4813825       0.17486175      51.7959724     0.0454498011     -158.324926      0.121386192      12.4209482
                     0.121356181      12.4309757     0.0454498011     -158.324926     0.0820822662      4.12979156      0.967740827     -36.6050452
                    0.0454654296     -158.348123      0.121386192      12.4209481      0.967740827     -36.6050452     0.0821368736      4.12953919
40.8                  0.17560797      51.7392738      0.875810751     -38.6313344      0.121890515      12.2489944     0.0456788712     -158.496136
                     0.875810752     -38.6313344      0.175553378      51.7069561      0.045663115     -158.472962      0.121920661      12.2389841
                     0.121890514      12.2489943      0.045663115     -158.472962     0.0824296379      4.06215992      0.967440438     -36.7420219
                    0.0456788713     -158.496136      0.121920661      12.2389841      0.967440438     -36.7420219     0.0824844115      4.06186557
40.94                0.176302752      51.6499265      0.874979987     -38.7815603       0.12242678      12.0676118     0.0458935775     -158.643539
                     0.874979987     -38.7815603      0.176247743      51.6175824     0.0458776933     -158.620389      0.122457062       12.057619
                      0.12242678      12.0676118     0.0458776933     -158.620389     0.0827775857      3.99455622      0.967137532     -36.8791731
                    0.0458935775     -158.643539      0.122457062      12.0576189      0.967137532     -36.8791731     0.0828325244      3.99421971
41.08                0.177000285      51.5602184      0.874145578     -38.9320604      0.122964979       11.886822     0.0461095552     -158.790335
                     0.874145579     -38.9320604      0.176944858       51.527849     0.0460935428     -158.767209      0.122995395      11.8768465
                     0.122964979      11.8868219     0.0460935429     -158.767209     0.0831261103      3.92697915      0.966832104     -37.0164987
                    0.0461095553     -158.790335      0.122995396      11.8768464      0.966832104     -37.0164987     0.0831812126      3.92660029
41.22                 0.17770058      51.4701474      0.873307524     -39.0828347      0.123505111      11.7066188     0.0463268117     -158.936527
                     0.873307525     -39.0828347      0.177644733      51.4377536     0.0463106708     -158.913426      0.123535662      11.6966606
                     0.123505111      11.7066187     0.0463106708     -158.913426      0.083475212      3.85942737       0.96652415     -37.1539985
                    0.0463268117     -158.936527      0.123535662      11.6966605       0.96652415     -37.1539985     0.0835304768      3.85900598
41.36                0.178403649      51.3797111      0.872465823     -39.2338833      0.124047179      11.5269961     0.0465453538     -159.082118
                     0.872465824     -39.2338833      0.178347381      51.3472939     0.0465290842     -159.059043      0.124077862      11.5170552
                     0.124047179       11.526996     0.0465290842     -159.059043     0.0838248915      3.79189958      0.966213665     -37.2916721
                    0.0465453539     -159.082118      0.124077863      11.5170552      0.966213665     -37.2916721     0.0838803174      3.79143549
41.5                 0.179109504      51.2889071      0.871620474     -39.3852065      0.124591181      11.3479478      0.046765189     -159.227112
                     0.871620474     -39.3852064      0.179052812      51.2564676     0.0467487903     -159.204064      0.124621998      11.3380243
                     0.124591181      11.3479477     0.0467487904     -159.204064     0.0841751492       3.7243945      0.965900645     -37.4295193
                     0.046765189     -159.227112      0.124621998      11.3380243      0.965900644     -37.4295193      0.084230735      3.72388753
41.64                0.179818156      51.1977332      0.870771475     -39.5368041       0.12513712       11.169468     0.0469863243     -159.371513
                     0.870771475     -39.5368041      0.179761038      51.1652724     0.0469697965     -159.348491      0.125168068      11.1595619
                      0.12513712       11.169468     0.0469697965     -159.348491     0.0845259857      3.65691085      0.965585084       -37.56754
                    0.0469863244     -159.371513      0.125168068      11.1595618      0.965585084       -37.56754     0.0845817301      3.65636083
41.78                0.180529616       51.106187      0.869918824     -39.6886765      0.125684996      10.9915508     0.0472087673     -159.515323
                     0.869918825     -39.6886765      0.180472071      51.0737059       0.04719211     -159.492328      0.125716075       10.981662
                     0.125684996      10.9915507       0.04719211     -159.492328     0.0848774015      3.58944737       0.96526698     -37.7057338
                    0.0472087674     -159.515323      0.125716075      10.9816619       0.96526698     -37.7057338     0.0849333031      3.58885413
41.92                0.181243897      51.0142662      0.869062522     -39.8408236       0.12623481      10.8141901     0.0474325254     -159.658545
                     0.869062522     -39.8408236      0.181185922      50.9817658     0.0474157384     -159.635578      0.126266019      10.8043186
                      0.12623481      10.8141901     0.0474157384     -159.635578     0.0852293971      3.52200282      0.964946327     -37.8441005
                    0.0474325255     -159.658545      0.126266019      10.8043186      0.964946327     -37.8441005     0.0852854546      3.52136619
42.06                0.181961008      50.9219683      0.868202567     -39.9932457      0.126786562      10.6373802     0.0476576061     -159.801184
                     0.868202567     -39.9932456      0.181902602      50.8894498     0.0476406892     -159.778245      0.126817901       10.627526
                     0.126786562      10.6373801     0.0476406892     -159.778245     0.0855819729      3.45457596      0.964623121     -37.9826399
                    0.0476576062     -159.801184      0.126817901      10.6275259      0.964623121     -37.9826399      0.085638185      3.45389577
42.2                 0.182680963      50.8292911      0.867338957     -40.1459427      0.127340255       10.461115     0.0478840171     -159.943242
                     0.867338958     -40.1459426      0.182622124      50.7967554     0.0478669699     -159.920332      0.127371722      10.4512782
                     0.127340255      10.4611149       0.04786697     -159.920332     0.0859351296      3.38716557      0.964297359     -38.1213518
                    0.0478840171     -159.943242      0.127371722      10.4512781      0.964297359     -38.1213518     0.0859914949      3.38644167
42.34                0.183403772      50.7362321      0.866471694     -40.2989147      0.127895888      10.2853889      0.048111766     -160.084722
                     0.866471694     -40.2989147      0.183344498      50.7036802     0.0480945884     -160.061842      0.127927483      10.2755694
                     0.127895888      10.2853888     0.0480945885     -160.061842     0.0862888676      3.31977044      0.963969035     -38.2602357
                     0.048111766     -160.084722      0.127927483      10.2755693      0.963969035     -38.2602357     0.0863453848      3.31900267
42.48                0.184129447      50.6427889      0.865600775      -40.452162      0.128453463      10.1101961     0.0483408606     -160.225629
                     0.865600776      -40.452162      0.184069736      50.6102219     0.0483235525     -160.202778      0.128485185      10.1003938
                     0.128453463       10.110196     0.0483235525     -160.202778     0.0866431874      3.25238939      0.963638147     -38.3992916
                    0.0483408606     -160.225629      0.128485185      10.1003937      0.963638146     -38.3992916     0.0866998551      3.25157759
42.62                0.184857999      50.5489591      0.864726202     -40.6056845      0.129012981      9.93553071     0.0485713088     -160.365964
                     0.864726202     -40.6056845       0.18479785      50.5163781     0.0485538699     -160.343144      0.129044829       9.9257457
                     0.129012981      9.93553063     0.0485538699     -160.343144     0.0869980895      3.18502124      0.963304689     -38.5385192
                    0.0485713089     -160.365964      0.129044829      9.92574563      0.963304689     -38.5385192     0.0870549063      3.18416525
42.76                 0.18558944      50.4547403      0.863847972     -40.7594824      0.129574442      9.76138716     0.0488031187     -160.505733
                     0.863847973     -40.7594824      0.185528851      50.4221462     0.0487855487     -160.482943      0.129606416       9.7516194
                     0.129574442      9.76138709     0.0487855487     -160.482943     0.0873535744      3.11766482      0.962968658     -38.6779181
                    0.0488031187     -160.505733      0.129606416      9.75161934      0.962968658     -38.6779181      0.087410539      3.11676449
42.9                 0.186323781        50.36013      0.862966087     -40.9135558      0.130137849      9.58775975     0.0490362982     -160.644937
                     0.862966088     -40.9135558       0.18626275       50.327524     0.0490185969     -160.622179      0.130169947      9.57800923
                     0.130137849      9.58775968      0.049018597     -160.622179     0.0877096426      3.05031896       0.96263005     -38.8174882
                    0.0490362983     -160.644937      0.130169948      9.57800916       0.96263005     -38.8174882     0.0877667535      3.04937416
43.04                0.187061034      50.2651258      0.862080547     -41.0679047      0.130703202      9.41464285     0.0492708555     -160.783581
                     0.862080547     -41.0679047      0.186999558      50.2325088     0.0492530228     -160.760855      0.130735424      9.40490954
                     0.130703202      9.41464277     0.0492530228     -160.760855     0.0880662945      2.98298254      0.962288862     -38.9572291
                    0.0492708556     -160.783581      0.130735424      9.40490947      0.962288862     -38.9572291     0.0881235503       2.9819931
43.18                 0.18780121      50.1697252      0.861191351     -41.2225292      0.131270502      9.24203085     0.0495067989     -160.921667
                     0.861191351     -41.2225292      0.187739288      50.1370983     0.0494888345     -160.898973      0.131302847      9.23231474
                     0.131270502      9.24203077     0.0494888345     -160.898973     0.0884235306      2.91565442      0.961945089     -39.0971406
                     0.049506799     -160.921667      0.131302847      9.23231468      0.961945089     -39.0971406       0.08848093      2.91462021
43.32                0.188544321      50.0739257      0.860298499     -41.3774295       0.13183975      9.06991821     0.0497441367     -161.059199
                       0.8602985     -41.3774295      0.188481951        50.04129     0.0497260404     -161.036538      0.131872217      9.06021927
                      0.13183975      9.06991813     0.0497260404     -161.036538     0.0887813515      2.84833347      0.961598727     -39.2372224
                    0.0497441367     -161.059199      0.131872217      9.06021921      0.961598727     -39.2372224     0.0888388929      2.84725436
43.46                0.189290377      49.9777248      0.859401993     -41.5326056      0.132410948      8.89829939     0.0499828772      -161.19618
                     0.859401994     -41.5326056      0.189227558      49.9450813     0.0499646489     -161.173553      0.132443536      8.88861762
                     0.132410948      8.89829931      0.049964649     -161.173553     0.0891397575      2.78101861      0.961249774     -39.3774742
                    0.0499828773      -161.19618      0.132443536      8.88861755      0.961249774     -39.3774742     0.0891974396      2.77989444
43.6                 0.190039391      49.8811201      0.858501833     -41.6880575      0.132984097      8.72716892     0.0502230291     -161.332614
                     0.858501834     -41.6880575       0.18997612      49.8484698     0.0502046686      -161.31002      0.133016805      8.71750428
                     0.132984097      8.72716884     0.0502046686      -161.31002     0.0894987492      2.71370872      0.960898226     -39.5178958
                    0.0502230292     -161.332614      0.133016806      8.71750422      0.960898225     -39.5178958     0.0895565705      2.71253937
43.74                0.190791373      49.7841089       0.85759802     -41.8437855      0.133559198      8.55652134      0.050464601     -161.468504
                      0.85759802     -41.8437855      0.190727649       49.751453      0.050446108     -161.445944      0.133592026      8.54687382
                     0.133559198      8.55652126     0.0504461081     -161.445944      0.089858327      2.64640273      0.960544078     -39.6584869
                    0.0504646011     -161.468504      0.133592026      8.54687376      0.960544078     -39.6584869      0.089916286      2.64518806
43.88                0.191546335      49.6866888      0.856690554     -41.9997895      0.134136253      8.38635124     0.0507076015     -161.603853
                     0.856690554     -41.9997895      0.191482157      49.6540283      0.050688976     -161.581328      0.134169199      8.37672081
                     0.134136253      8.38635116      0.050688976     -161.581328     0.0902184914      2.57909956      0.960187328     -39.7992471
                    0.0507076016     -161.603853      0.134169199      8.37672075      0.960187328     -39.7992471     0.0902765867      2.57783944
44.02                0.192304288      49.5888572      0.855779436     -42.1560697      0.134715262      8.21665324     0.0509520395     -161.738664
                     0.855779437     -42.1560696      0.192239653      49.5561931     0.0509332812     -161.716174      0.134748326      8.20703988
                     0.134715262      8.21665317     0.0509332812     -161.716174     0.0905792427      2.51179816      0.959827972     -39.9401762
                    0.0509520396     -161.738664      0.134748326      8.20703982      0.959827972     -39.9401762     0.0906374729      2.51049246
44.16                0.193065244      49.4906116      0.854864669      -42.312626      0.135296227        8.047422      0.051197924     -161.872941
                     0.854864669      -42.312626      0.193000151       49.457945     0.0511790326     -161.850487      0.135329408      8.03782569
                     0.135296227      8.04742192     0.0511790327     -161.850487     0.0909405816      2.44449747      0.959466007      -40.081274
                     0.051197924     -161.872941      0.135329408      8.03782562      0.959466007     -40.0812739      0.090998945      2.44314607
44.3                 0.193829213      49.3919493      0.853946252     -42.4694587       0.13587915      7.87865221     0.0514452638     -162.006687
                     0.853946252     -42.4694587       0.19376366      49.3592812     0.0514262393     -161.984269      0.135912447      7.86907291
                      0.13587915      7.87865213     0.0514262393     -161.984269     0.0913025084      2.37719644       0.95910143       -40.22254
                    0.0514452638     -162.006687      0.135912447      7.86907285       0.95910143       -40.22254     0.0913610036      2.37579922
44.44                0.194596208      49.2928678      0.853024188     -42.6265677      0.136464032      7.71033859     0.0516940681     -162.139906
                     0.853024188     -42.6265677      0.194530193      49.2601994     0.0516749104     -162.117524      0.136497443      7.70077629
                     0.136464032      7.71033851     0.0516749104     -162.117524     0.0916650235      2.30989406      0.958734237      -40.363974
                    0.0516940682     -162.139906      0.136497444      7.70077623      0.958734237      -40.363974      0.091723649       2.3084509
44.58                0.195366239      49.1933645      0.852098478     -42.7839532      0.137050874      7.54247591     0.0519443462       -162.2726
                     0.852098478     -42.7839532       0.19529976      49.1606967      0.051925055     -162.250255      0.137084399      7.53293058
                     0.137050874      7.54247583      0.051925055     -162.250255     0.0920281274       2.2425893      0.958364425     -40.5055758
                    0.0519443462       -162.2726        0.1370844      7.53293052      0.958364425     -40.5055758     0.0920868817      2.24110008
44.72                0.196139317      49.0934368      0.851169123     -42.9416152      0.137639678      7.37505897     0.0521961073     -162.404774
                     0.851169124     -42.9416152      0.196072373      49.0607707     0.0521766825     -162.382466      0.137673316      7.36553058
                     0.137639678      7.37505888     0.0521766825     -162.382466     0.0923918206      2.17528116      0.957991992     -40.6473449
                    0.0521961074     -162.404774      0.137673316      7.36553052      0.957991992     -40.6473449     0.0924507021      2.17374576
44.86                0.196915453       48.993082      0.850236127     -43.0995537      0.138230446      7.20808259     0.0524493609     -162.536429
                     0.850236127     -43.0995537      0.196848042      48.9604187     0.0524298024     -162.514159      0.138264195      7.19857112
                     0.138230446       7.2080825     0.0524298024     -162.514159     0.0927561034      2.10796863      0.957616934     -40.7892812
                     0.052449361     -162.536429      0.138264195      7.19857105      0.957616934     -40.7892812     0.0928151106      2.10638694
45                   0.197694659      48.8922975       0.84929949      -43.257769      0.138823178      7.04154164     0.0527041166     -162.667571
                     0.849299491     -43.2577689       0.19762678      48.8596381     0.0526844241     -162.645338      0.138857038      7.03204706
                     0.138823178      7.04154156     0.0526844241     -162.645338     0.0931209763      2.04065073      0.957239248     -40.9313843
                    0.0527041166     -162.667571      0.138857038        7.032047      0.957239248     -40.9313843     0.0931801076      2.03902264
45.14                0.198476945      48.7910806      0.848359216     -43.4162609      0.139417876      6.87543102     0.0529603838     -162.798201
                     0.848359216     -43.4162609      0.198408596      48.7584261     0.0529405573     -162.776007      0.139451846      6.86595331
                     0.139417876      6.87543094     0.0529405574     -162.776007     0.0934864397      1.97332647      0.956858932     -41.0736538
                    0.0529603839     -162.798201      0.139451846      6.86595324      0.956858932     -41.0736538     0.0935456936      1.97165189
45.28                0.199262323      48.6894287      0.847415306     -43.5750297      0.140014542      6.70974567     0.0532181725     -162.928323
                     0.847415306     -43.5750296      0.199193502      48.6567802     0.0531982118     -162.906168      0.140048621      6.70028479
                     0.140014542      6.70974559     0.0531982119     -162.906168      0.093852494       1.9059949      0.956475983     -41.2160895
                    0.0532181726     -162.928323      0.140048621      6.70028473      0.956475983     -41.2160895     0.0939118689       1.9042737
45.42                0.200050804       48.587339      0.846467763     -43.7340753      0.140613177      6.54448055     0.0534774925     -163.057941
                     0.846467763     -43.7340753      0.199981509      48.5546977     0.0534573975     -163.035826      0.140647364      6.53503648
                     0.140613177      6.54448047     0.0534573975     -163.035826     0.0942191397      1.83865504      0.956090398      -41.358691
                    0.0534774925     -163.057941      0.140647365      6.53503642      0.956090398      -41.358691     0.0942786339      1.83688713
45.56                0.200842398       48.484809      0.845516589     -43.8933978      0.141213783      6.37963066     0.0537383536     -163.187058
                     0.845516589     -43.8933978      0.200772628      48.4521758     0.0537181242     -163.164982      0.141248077      6.37020338
                     0.141213783      6.37963058     0.0537181242     -163.164982      0.094586377      1.77130595      0.955702174     -41.5014581
                    0.0537383537     -163.187058      0.141248078      6.37020332      0.955702174     -41.5014581     0.0946459891      1.76949123
45.7                 0.201637116      48.3818358      0.844561788     -44.0529973      0.141816362      6.21519105     0.0540007661     -163.315677
                     0.844561788     -44.0529973      0.201566869      48.3492119     0.0539804021     -163.293641      0.141850762      6.20578052
                     0.141816362      6.21519097     0.0539804021     -163.293641     0.0949542065      1.70394668      0.955311309     -41.6443904
                    0.0540007662     -163.315677      0.141850762      6.20578045      0.955311309     -41.6443904     0.0950139348      1.70208506
45.84                 0.20243497      48.2784168      0.843603362     -44.2128739      0.142420914      6.05115677     0.0542647401     -163.443801
                     0.843603363     -44.2128739      0.202364244      48.2458032     0.0542442414     -163.421805       0.14245542      6.04176296
                     0.142420914      6.05115669     0.0542442414     -163.421805     0.0953226285      1.63657632        0.9549178     -41.7874875
                    0.0542647401     -163.443801       0.14245542       6.0417629        0.9549178     -41.7874875     0.0953824713      1.63466769
45.98                0.203235969      48.1745491      0.842641315     -44.3730276      0.143027443      5.88752293     0.0545302858     -163.571433
                     0.842641316     -44.3730276      0.203164763       48.141947     0.0545096524     -163.549479      0.143062052      5.87814582
                     0.143027443      5.88752284     0.0545096524     -163.549479     0.0956916435      1.56919392      0.954521646     -41.9307492
                    0.0545302859     -163.571433      0.143062052      5.87814576      0.954521646     -41.9307492     0.0957515992      1.56723819
46.12                0.204040125      48.0702302       0.84167565     -44.5334584      0.143635949      5.72428466     0.0547974139     -163.698578
                     0.841675651     -44.5334584      0.203968438      48.0376405     0.0547766455     -163.676665      0.143670661      5.71492422
                     0.143635949      5.72428457     0.0547766455     -163.676665     0.0960612517      1.50179858      0.954122843     -42.0741752
                    0.0547974139     -163.698578      0.143670661      5.71492416      0.954122843     -42.0741751     0.0961213187      1.49979567
46.26                0.204847448      47.9654571      0.840706371     -44.6941665      0.144246434      5.56143713     0.0550661347     -163.825238
                     0.840706371     -44.6941665      0.204775278      47.9328811     0.0550452313     -163.803366      0.144281247      5.55209333
                     0.144246434      5.56143704     0.0550452313     -163.803366     0.0964314536      1.43438939      0.953721389      -42.217765
                    0.0550661347     -163.825238      0.144281248      5.55209327      0.953721389     -42.2177649     0.0964916302      1.43233921
46.4                 0.205657948      47.8602272       0.83973348     -44.8551519        0.1448589      5.39897553     0.0553364589     -163.951416
                      0.83973348     -44.8551519      0.205585294      47.8276658     0.0553154205     -163.929586      0.144893814      5.38964835
                       0.1448589      5.39897545     0.0553154205     -163.929586     0.0968022495      1.36696546      0.953317283     -42.3615183
                     0.055336459     -163.951416      0.144893814      5.38964829      0.953317282     -42.3615183     0.0968625341      1.36486792
46.54                0.206471637      47.7545375      0.838756982     -45.0164147      0.145473348      5.23689511     0.0556083974     -164.077116
                     0.838756982     -45.0164146      0.206398497       47.721992     0.0555872238     -164.055328      0.145508362      5.22758451
                     0.145473348      5.23689502     0.0555872238     -164.055328     0.0971736399      1.29952589      0.952910521     -42.5054348
                    0.0556083975     -164.077116      0.145508362      5.22758445      0.952910521     -42.5054348     0.0972340307      1.29738091
46.68                0.207288525      47.6483854       0.83777688     -45.1779548       0.14608978      5.07519111     0.0558819611      -164.20234
                     0.837776881     -45.1779548      0.207214897      47.6158567     0.0558606521     -164.180595      0.146124892      5.06589708
                      0.14608978      5.07519102     0.0558606522     -164.180595      0.097545625      1.23206981      0.952501102     -42.6495143
                    0.0558819611      -164.20234      0.146124893      5.06589701      0.952501102     -42.6495142     0.0976061205      1.22987732
46.82                0.208108621       47.541768       0.83679318     -45.3397724      0.146708198      4.91385884     0.0561571609     -164.327093
                      0.83679318     -45.3397724      0.208034504      47.5092573     0.0561357166     -164.305391      0.146743408      4.90458134
                     0.146708198      4.91385875     0.0561357166     -164.305391     0.0979182053      1.16459635      0.952089025     -42.7937562
                    0.0561571609     -164.327093      0.146743408      4.90458127      0.952089025     -42.7937562     0.0979788036      1.16235625
46.96                0.208931938      47.4346825      0.835805884     -45.5018676      0.147328604      4.75289362      0.056434008     -164.451377
                     0.835805884     -45.5018676       0.20885733      47.4021908     0.0564124283     -164.429719       0.14736391      4.74363262
                     0.147328604      4.75289354     0.0564124284     -164.429719     0.0982913811      1.09710464      0.951674286     -42.9381603
                    0.0564340081     -164.451377      0.147363911      4.74363256      0.951674286     -42.9381603     0.0983520806      1.09481687
47.1                 0.209758483      47.3271259      0.834814998     -45.6642403         0.147951      4.59229082     0.0567125138     -164.575196
                     0.834814998     -45.6642403      0.209683384      47.2946545     0.0566907986     -164.553581      0.147986401      4.58304629
                        0.147951      4.59229073     0.0566907986     -164.553581     0.0986651527      1.02959382      0.951256885     -43.0827262
                    0.0567125138     -164.575196      0.147986401      4.58304623      0.951256885     -43.0827262     0.0987259516      1.02725831
47.24                0.210588268      47.2190956      0.833820526     -45.8268906      0.148575387      4.43204581     0.0569926896     -164.698553
                     0.833820526     -45.8268906      0.210512676      47.1866454     0.0569708389     -164.676982      0.148610882      4.42281774
                     0.148575387      4.43204572     0.0569708389     -164.676982     0.0990395205     0.962063048      0.950836819     -43.2274535
                    0.0569926896     -164.698553      0.148610882      4.42281767      0.950836819     -43.2274535     0.0991004171     0.959679723
47.38                0.211421304      47.1105885      0.832822473     -45.9898187      0.149201766      4.27215402     0.0572745469     -164.821451
                     0.832822473     -45.9898187      0.211345216      47.0781607     0.0572525606     -164.799924      0.149237354      4.26294237
                     0.149201766      4.27215393     0.0572525606     -164.799924     0.0994144849     0.894511486      0.950414087      -43.372342
                     0.057274547     -164.821451      0.149237354       4.2629423      0.950414087      -43.372342     0.0994754774      0.89208028
47.52                0.212257598      47.0016019      0.831820843     -46.1530244      0.149830141       4.1126109     0.0575580976     -164.943893
                     0.831820843     -46.1530244      0.212181015      46.9691976     0.0575359756     -164.922411       0.14986582      4.10341565
                     0.149830141      4.11261081     0.0575359756     -164.922411      0.099790046       0.8269383      0.949988688     -43.5173912
                    0.0575580976     -164.943893       0.14986582      4.10341558      0.949988687     -43.5173912     0.0998511327     0.824459147
47.66                0.213097163      46.8921327      0.830815642      -46.316508      0.150460512      3.95341193     0.0578433533     -165.065883
                     0.830815642      -46.316508      0.213020083       46.859753     0.0578210956     -165.044446      0.150496282      3.94423305
                     0.150460512      3.95341185     0.0578210956     -165.044446      0.100166204     0.759342666      0.949560618     -43.6626008
                    0.0578433533     -165.065883      0.150496282      3.94423299      0.949560618     -43.6626008      0.100227383     0.756815502
47.8                 0.213940007      46.7821781      0.829806875     -46.4802694      0.151092882      3.79455263     0.0581303259     -165.187423
                     0.829806875     -46.4802694      0.213862428      46.7498242     0.0581079325     -165.166031      0.151128741      3.78539009
                     0.151092882      3.79455254     0.0581079325     -165.166031       0.10054296     0.691723766      0.949129879     -43.8079704
                     0.058130326     -165.187423      0.151128741      3.78539002      0.949129879     -43.8079704       0.10060423     0.689148532
47.94                 0.21478614      46.6717353      0.828794548     -46.6443087      0.151727252      3.63602853     0.0584190277     -165.308518
                     0.828794548     -46.6443087      0.214708061      46.6394081     0.0583964985     -165.287171      0.151763199      3.62688231
                     0.151727252      3.63602844     0.0583964985     -165.287171      0.100920314      0.62408079      0.948696467     -43.9534997
                    0.0584190278     -165.308518      0.151763199      3.62688224      0.948696467     -43.9534997      0.100981672     0.621457428
48.08                0.215635571      46.5608011      0.827778665     -46.8086259      0.152363624       3.4778352     0.0587094708     -165.429169
                     0.827778666     -46.8086259      0.215556992      46.5285019     0.0586868058     -165.407869      0.152399658      3.46870528
                     0.152363624      3.47783511     0.0586868058     -165.407869      0.101298266     0.556412937      0.948260381     -44.0991882
                    0.0587094709     -165.429169      0.152399658      3.46870521      0.948260381     -44.0991882      0.101359711     0.553741391
48.22                0.216488311      46.4493727      0.826759234     -46.9732211         0.153002      3.31996825     0.0590016676     -165.549381
                     0.826759234     -46.9732211       0.21640923      46.4171026     0.0589788667     -165.528127       0.15303812       3.3108546
                        0.153002      3.31996816     0.0589788668     -165.528127      0.101676816     0.488719411      0.947821622     -44.2450357
                    0.0590016676     -165.549381       0.15303812      3.31085453      0.947821621     -44.2450357      0.101738346     0.485999628
48.36                0.217344369      46.3374472      0.825736259     -47.1380944      0.153642382      3.16242331     0.0592956305     -165.669156
                     0.825736259     -47.1380944      0.217264784      46.3052073     0.0592726938     -165.647949      0.153678587       3.1533259
                     0.153642382      3.16242322     0.0592726938     -165.647949      0.102055965     0.420999424      0.947380186     -44.3910417
                    0.0592956305     -165.669156      0.153678587      3.15332584      0.947380186     -44.3910417      0.102117579     0.418231354
48.5                 0.218203753      46.2250214      0.824709746     -47.3032458      0.154284772      3.00519604     0.0595913722     -165.788499
                     0.824709746     -47.3032458      0.218123664      46.1928129     0.0595682997     -165.767338       0.15432106      2.99611485
                     0.154284772      3.00519595     0.0595682997     -165.767338      0.102435712     0.353252195      0.946936074     -44.5372058
                    0.0595913723     -165.788499       0.15432106      2.99611479      0.946936073     -44.5372058      0.102497408     0.350435789
48.64                0.219066473      46.1120925      0.823679703     -47.4686753      0.154929172      2.84828212     0.0598889055     -165.907411
                     0.823679703     -47.4686753      0.218985878      46.0799164     0.0598656972     -165.886297      0.154965542      2.83921713
                     0.154929172      2.84828203     0.0598656972     -165.886297       0.10281606      0.28547695      0.946489283     -44.6835277
                    0.0598889056     -165.907411      0.154965542      2.83921707      0.946489283     -44.6835277      0.102877835     0.282612163
48.78                0.219932539      45.9986575      0.822646135      -47.634383      0.155575584      2.69167727     0.0601882434     -166.025896
                     0.822646135     -47.6343829      0.219851437       45.966515     0.0601648993      -166.00483      0.155612034      2.68262847
                     0.155575584      2.69167718     0.0601648993      -166.00483      0.103197006     0.217672922      0.946039815     -44.8300069
                    0.0601882435     -166.025896      0.155612034       2.6826284      0.946039814     -44.8300069      0.103258859      0.21475971
48.92                0.220801958      45.8847133      0.821609049     -47.8003689      0.156224009      2.53537724     0.0604893989     -166.143957
                     0.821609049     -47.8003689      0.220720349      45.8526054      0.060465919     -166.122939      0.156260539       2.5263446
                     0.156224009      2.53537715      0.060465919     -166.122939      0.103578553      0.14983935      0.945587666     -44.9766432
                     0.060489399     -166.143957      0.156260539      2.52634453      0.945587666     -44.9766432      0.103640482     0.146877672
49.06                 0.22167474      45.7702569      0.820568451     -47.9666331      0.156874449      2.37937781     0.0607923853     -166.261598
                     0.820568452     -47.9666331      0.221592622      45.7381849     0.0607687695     -166.240628      0.156911057       2.3703613
                     0.156874449      2.37937772     0.0607687696     -166.240628      0.103960699    0.0819754804      0.945132838     -45.1234361
                    0.0607923854     -166.261598      0.156911058      2.37036124      0.945132838     -45.1234361      0.104022702    0.0789652978
49.2                 0.222550894      45.6552852       0.81952435     -48.1331757      0.157526907      2.22367477      0.061097216     -166.378821
                      0.81952435     -48.1331756      0.222468266      45.6232502     0.0610734644       -166.3579      0.157563592      2.21467438
                     0.157526907      2.22367468     0.0610734645       -166.3579      0.104343446    0.0140805659      0.944675329     -45.2703852
                     0.061097216     -166.378821      0.157563592      2.21467432      0.944675329     -45.2703852      0.104405521    0.0110218425
49.34                0.223430427      45.5397953      0.818476751     -48.2999966      0.158181384      2.06826396     0.0614039044     -166.495631
                     0.818476751     -48.2999966      0.223347289      45.5077983     0.0613800172     -166.474758      0.158218145      2.05927967
                     0.158181384      2.06826387     0.0613800172     -166.474758      0.104726794   -0.0538461344      0.944215138     -45.4174901
                    0.0614039045     -166.495631      0.158218145       2.0592796      0.944215138     -45.4174901      0.104788939   -0.0569534322
49.48                0.224313349      45.4237839      0.817425662      -48.467096      0.158837883      1.91314124     0.0617124644     -166.612029
                     0.817425662     -48.4670959      0.224229699      45.3918262     0.0616884415     -166.591205      0.158874718      1.90417302
                     0.158837883      1.91314115     0.0616884415     -166.591205      0.105110742    -0.121805355      0.943752266     -45.5647504
                    0.0617124645     -166.612029      0.158874718      1.90417296      0.943752266     -45.5647504      0.105172956    -0.124961258
49.62                0.225199667      45.3072482       0.81637109     -48.6344738      0.159496404      1.75830249     0.0620229098     -166.728019
                      0.81637109     -48.6344738      0.225115505      45.2753309     0.0619987512     -166.707244      0.159533312      1.74935033
                     0.159496404       1.7583024     0.0619987512     -166.707244      0.105495292    -0.189797823      0.943286711     -45.7121658
                    0.0620229098     -166.728019      0.159533313      1.74935026      0.943286711     -45.7121658      0.105557571    -0.193002362
49.76                 0.22608939      45.1901849      0.815313044     -48.8021302      0.160156951      1.60374362     0.0623352545     -166.843604
                     0.815313044     -48.8021302      0.226004715      45.1583091     0.0623109604     -166.822879      0.160193931      1.59480751
                     0.160156951      1.60374353     0.0623109604     -166.822879      0.105880442    -0.257824261      0.942818474     -45.8597358
                    0.0623352546     -166.843604      0.160193931      1.59480744      0.942818474     -45.8597358      0.105942786    -0.261077462
49.9                 0.226982526      45.0725909       0.81425153     -48.9700651      0.160819525      1.44946058     0.0626495129     -166.958787
                      0.81425153     -48.9700651      0.226897337      45.0407578     0.0626250833     -166.938112      0.160856575      1.44054049
                     0.160819525      1.44946048     0.0626250833     -166.938112      0.106266195    -0.325885385      0.942347554       -46.00746
                     0.062649513     -166.958787      0.160856575      1.44054042      0.942347554     -46.0074599      0.106328601    -0.329187271
50.04                0.227879083      44.9544633      0.813186557     -49.1382787      0.161484128      1.29544933     0.0629656992     -167.073572
                     0.813186558     -49.1382787      0.227793379      44.9226739     0.0629411342     -167.052947      0.161521247      1.28654525
                     0.161484128      1.29544923     0.0629411342     -167.052947      0.106652549    -0.393981904      0.941873951      -46.155338
                    0.0629656993     -167.073572      0.161521247      1.28654518      0.941873951     -46.1553379      0.106715015    -0.397332498
50.18                0.228779067      44.8357987      0.812118134     -49.3067709      0.162150763      1.14170586     0.0632838281     -167.187962
                     0.812118134     -49.3067709      0.228692848      44.8040543     0.0632591277     -167.167387      0.162187949      1.13281778
                     0.162150763      1.14170577     0.0632591277     -167.167387      0.107039505    -0.462114522      0.941397665     -46.3033693
                    0.0632838281     -167.187962      0.162187949      1.13281771      0.941397665     -46.3033693       0.10710203    -0.465513842
50.32                0.229682487      44.7165941      0.811046267     -49.4755419       0.16281943     0.988226202      0.063603914     -167.301959
                     0.811046267     -49.4755419      0.229595752      44.6848959     0.0635790784     -167.281435      0.162856682     0.979354101
                      0.16281943     0.988226108     0.0635790784     -167.281435      0.107427063    -0.530283935      0.940918696     -46.4515537
                    0.0636039141     -167.301959      0.162856682     0.979354035      0.940918696     -46.4515537      0.107489644    -0.533731999
50.46                 0.23058935      44.5968463      0.809970966     -49.6445916      0.163490132     0.835006396     0.0639259721     -167.415567
                     0.809970966     -49.6445916      0.230502099      44.5651954     0.0639010013     -167.395094      0.163527449     0.826150262
                     0.163490132     0.835006301     0.0639010013     -167.395094      0.107815223    -0.598490837      0.940437044     -46.5998907
                    0.0639259721     -167.415567      0.163527449     0.826150196      0.940437044     -46.5998907      0.107877859    -0.601987659
50.6                 0.231499663      44.4765522       0.80889224     -49.8139202      0.164162871     0.682042514     0.0642500172     -167.528789
                      0.80889224     -49.8139202      0.231411895      44.4449497     0.0642249113     -167.508367      0.164200251     0.673202337
                     0.164162871     0.682042419     0.0642249114     -167.508367      0.108203986    -0.666735912       0.93995271     -46.7483798
                    0.0642500172     -167.528789      0.164200251      0.67320227       0.93995271     -46.7483797      0.108266674    -0.670281505
50.74                0.232413433      44.3557086      0.807810097     -49.9835276      0.164837649     0.529330656     0.0645760646     -167.641628
                     0.807810097     -49.9835276      0.232325147      44.3241557     0.0645508238     -167.621257      0.164875091     0.520506423
                     0.164837649     0.529330561     0.0645508238     -167.621257      0.108593352    -0.735019841      0.939465693     -46.8970206
                    0.0645760646     -167.641628      0.164875091     0.520506357      0.939465693     -46.8970206       0.10865609    -0.738614215
50.88                0.233330667      44.2343124      0.806724546      -50.153414      0.165514467     0.376866945     0.0649041297     -167.754086
                     0.806724546      -50.153414      0.233241863      44.2028101     0.0648787541     -167.733767       0.16555197     0.368058647
                     0.165514467     0.376866849     0.0648787542     -167.733767       0.10898332    -0.803343299      0.938975994     -47.0458127
                    0.0649041297     -167.754086       0.16555197      0.36805858      0.938975994     -47.0458127      0.109046107     -0.80698646
51.02                0.234251372      44.1123602      0.805635596     -50.3235793      0.166193329     0.224647531      0.065234228     -167.866168
                     0.805635596     -50.3235793      0.234162049      44.0809098     0.0652087178     -167.845901       0.16623089     0.215855158
                     0.166193329     0.224647435     0.0652087179     -167.845901      0.109373892    -0.871706953      0.938483614     -47.1947557
                    0.0652342281     -167.866169      0.166230891     0.215855091      0.938483614     -47.1947557      0.109436725    -0.875398908
51.16                0.235175553      43.9898489      0.804543258     -50.4940237      0.166874235    0.0726685886     0.0655663754     -167.977877
                     0.804543258     -50.4940236      0.235085711      43.9584516     0.0655407307     -167.957662      0.166911854    0.0638921316
                     0.166874235    0.0726684925     0.0655407308     -167.957662      0.109765067    -0.940111469      0.937988552     -47.3438492
                    0.0655663755     -167.977877      0.166911855    0.0638920651      0.937988552     -47.3438492      0.109827944    -0.943852219
51.3                 0.236103217      43.8667753      0.803447539     -50.6647471      0.167557189   -0.0790736827     0.0659005878     -168.089214
                     0.803447539     -50.6647471      0.236012856      43.8354322     0.0658748087     -168.069052      0.167594864   -0.0878342307
                     0.167557189   -0.0790737791     0.0658748088     -168.069052      0.110156845      -1.0085575      0.937490811     -47.4930927
                    0.0659005879     -168.089215      0.167594864   -0.0878342973      0.937490811     -47.4930926      0.110219764     -1.01234705
51.44                 0.23703437      43.7431362      0.802348451     -50.8357496       0.16824219    -0.230583058     0.0662368813     -168.200185
                     0.802348451     -50.8357496       0.23694349      43.7118485     0.0662109681     -168.180075       0.16827992    -0.239327704
                      0.16824219    -0.230583155     0.0662109681     -168.180075      0.110549227     -1.07704571      0.936990389     -47.6424857
                    0.0662368814     -168.200185       0.16827992     -0.23932777      0.936990389     -47.6424857      0.110612185     -1.08088405
51.58                0.237969017      43.6189283      0.801246003     -51.0070314      0.168929243    -0.381863289     0.0665752723      -168.31079
                     0.801246003     -51.0070313      0.237877618      43.5876971      0.066549225     -168.290734      0.168967026    -0.390592037
                     0.168929243    -0.381863386     0.0665492251     -168.290734      0.110942212     -1.14557673      0.936487289      -47.792028
                    0.0665752724      -168.31079      0.168967026    -0.390592104      0.936487289     -47.7920279      0.111005208     -1.14946386
51.72                0.238907166      43.4941483      0.800140204     -51.1785923      0.169618348    -0.532918102     0.0669157772     -168.421034
                     0.800140205     -51.1785923      0.238815247      43.4629749     0.0668895961     -168.401031      0.169656182    -0.541630957
                     0.169618348    -0.532918199     0.0668895962     -168.401031      0.111335801     -1.21415121       0.93598151     -47.9417189
                    0.0669157773     -168.421034      0.169656182    -0.541631024       0.93598151     -47.9417189      0.111398833     -1.21808713
51.86                0.239848819      43.3687931      0.799031066     -51.3504326      0.170309508    -0.683751199     0.0672584129      -168.53092
                     0.799031067     -51.3504326      0.239756381      43.3376785     0.0672320981      -168.51097      0.170347392    -0.692448164
                     0.170309508    -0.683751296     0.0672320982      -168.51097      0.111729994      -1.2827698      0.935473055     -48.0915581
                     0.067258413      -168.53092      0.170347392     -0.69244823      0.935473055     -48.0915581       0.11179306     -1.28675448
52                   0.240793984      43.2428593      0.797918599     -51.5225522      0.171002724    -0.834366258     0.0676031961     -168.640451
                     0.797918599     -51.5225522      0.240701026      43.2118048      0.067576748     -168.620555      0.171040657    -0.843047335
                     0.171002724    -0.834366355      0.067576748     -168.620555      0.112124791      -1.3514331      0.934961923     -48.2415452
                    0.0676031962     -168.640451      0.171040657    -0.843047402      0.934961923     -48.2415451      0.112187888     -1.35546655
52.14                0.241742664      43.1163437      0.796802813     -51.6949512      0.171697999    -0.984766933     0.0679501442     -168.749629
                     0.796802813     -51.6949512      0.241649186      43.0853504     0.0679235628     -168.729787      0.171735978    -0.993432123
                     0.171697999    -0.984767031     0.0679235628     -168.729787      0.112520193     -1.42014177      0.934448117     -48.3916796
                    0.0679501442     -168.749629      0.171735979     -0.99343219      0.934448117     -48.3916796      0.112583318     -1.42422396
52.28                0.242694865       42.989243      0.795683719     -51.8676297      0.172395334     -1.13495686     0.0682992743     -168.858458
                      0.79568372     -51.8676297      0.242600867      42.9583121     0.0682725599      -168.83867      0.172433359     -1.14360616
                     0.172395334     -1.13495695     0.0682725599      -168.83867      0.112916198     -1.48889641      0.933931637      -48.541961
                    0.0682992743     -168.858458      0.172433359     -1.14360623      0.933931637     -48.5419609       0.11297935     -1.49302733
52.42                 0.24365059      42.8615538      0.794561329     -52.0405877      0.173094731     -1.28493963      0.068650604     -168.966941
                     0.794561329     -52.0405877      0.243556073      42.8306865     0.0686237568     -168.947207        0.1731328     -1.29357305
                     0.173094731     -1.28493973     0.0686237569     -168.947207      0.113312808     -1.55769764      0.933412485     -48.6923888
                    0.0686506041     -168.966941        0.1731328     -1.29357312      0.933412485     -48.6923888      0.113375985     -1.56187728
52.56                0.244609844      42.7332729      0.793435652     -52.2138253      0.173796193     -1.43471885     0.0690041511     -169.075081
                     0.793435652     -52.2138253      0.244514808      42.7024703     0.0689771714     -169.055402      0.173834304     -1.44333637
                     0.173796193     -1.43471895     0.0689771715     -169.055402      0.113710022     -1.62654608      0.932890662     -48.8429627
                    0.0690041511     -169.075081      0.173834304     -1.44333644      0.932890662     -48.8429627      0.113773221      -1.6307744
52.7                 0.245572632      42.6043969      0.792306701     -52.3873425      0.174499721     -1.58429807     0.0693599335      -169.18288
                     0.792306701     -52.3873425      0.245477077      42.5736603     0.0693328216     -169.163257      0.174537872      -1.5928997
                     0.174499721     -1.58429817     0.0693328216     -169.163257       0.11410784     -1.69544232       0.93236617     -48.9936822
                    0.0693599335      -169.18288      0.174537872     -1.59289976       0.93236617     -48.9936822       0.11417106     -1.69971932
52.84                0.246538955      42.4749226      0.791174487     -52.5611395      0.175205317     -1.73368082     0.0697179694     -169.290343
                     0.791174487     -52.5611394      0.246442882      42.4442531     0.0696907255     -169.270775      0.175243507     -1.74226655
                     0.175205317     -1.73368092     0.0696907256     -169.270775      0.114506263     -1.76438698       0.93183901     -49.1445468
                    0.0697179695     -169.290343      0.175243507     -1.74226662       0.93183901     -49.1445468      0.114569501     -1.76871262
52.98                0.247508818      42.3448466      0.790039022     -52.7352162      0.175912982     -1.88287063     0.0700782772     -169.397472
                     0.790039022     -52.7352161      0.247412227      42.3142454     0.0700509017     -169.377959       0.17595121     -1.89144045
                     0.175912982     -1.88287073     0.0700509017     -169.377959      0.114905291     -1.83338065      0.931309184     -49.2955561
                    0.0700782773     -169.397472       0.17595121     -1.89144052      0.931309184     -49.2955561      0.114968544      -1.8377549
53.12                0.248482225      42.2141656      0.788900317     -52.9095727       0.17662272     -2.03187099     0.0704408756     -169.504269
                     0.788900318     -52.9095727      0.248385116      42.1836338     0.0704133686     -169.484812      0.176660983     -2.04042489
                      0.17662272     -2.03187109     0.0704133687     -169.484812      0.115304923     -1.90242393      0.930776694     -49.4467096
                    0.0704408756     -169.504269      0.176660983     -2.04042496      0.930776694     -49.4467096       0.11536819     -1.90684675
53.26                0.249459177      42.0828761      0.787758385     -53.0842092      0.177334531     -2.18068536     0.0708057833     -169.610739
                     0.787758386     -53.0842091      0.249361551       42.052415     0.0707781453     -169.591338      0.177372828     -2.18922334
                     0.177334531     -2.18068546     0.0707781453     -169.591338       0.11570516     -1.97151739      0.930241541     -49.5980068
                    0.0708057834     -169.610739      0.177372829     -2.18922341      0.930241541     -49.5980068      0.115768437     -1.97598876
53.4                 0.250439677      41.9509749      0.786613238     -53.2591256      0.178048418      -2.3293172     0.0711730195     -169.716884
                     0.786613238     -53.2591256      0.250341535      41.9205856     0.0711452507     -169.697539      0.178086748     -2.33783925
                     0.178048418      -2.3293173     0.0711452508     -169.697539      0.116106001     -2.04066162      0.929703728     -49.7494473
                    0.0711730196     -169.716884      0.178086748     -2.33783932      0.929703728     -49.7494473      0.116169288     -2.04518151
53.54                0.251423728      41.8184586      0.785464888      -53.434322      0.178764382     -2.47776993     0.0715426035     -169.822707
                     0.785464888      -53.434322      0.251325071      41.7881423     0.0715147043     -169.803418      0.178802743     -2.48627604
                     0.178764382     -2.47777003     0.0715147043     -169.803418      0.116507447     -2.10985721      0.929163257     -49.9010307
                    0.0715426035     -169.822707      0.178802743      -2.4862761      0.929163256     -49.9010307      0.116570741     -2.11442557
53.68                0.252411331      41.6853238      0.784313348     -53.6097986      0.179482426     -2.62604696     0.0719145548     -169.928211
                     0.784313348     -53.6097986      0.252312159      41.6550817     0.0718865255     -169.908979      0.179520815     -2.63453711
                     0.179482426     -2.62604706     0.0718865255     -169.908979      0.116909498     -2.17910472      0.928620129     -50.0527563
                    0.0719145549     -169.928211      0.179520815     -2.63453718      0.928620129     -50.0527563      0.116972796     -2.18372151
53.82                0.253402488      41.5515671       0.78315863     -53.7855554       0.18020255     -2.77415167     0.0722888932     -170.033399
                     0.783158631     -53.7855554      0.253302803      41.5214004     0.0722607342     -170.014224      0.180240967     -2.78262585
                      0.18020255     -2.77415177     0.0722607342     -170.014224      0.117312154     -2.24840472      0.928074347     -50.2046239
                    0.0722888933     -170.033399      0.180240967     -2.78262591      0.928074347     -50.2046239      0.117375453     -2.25306991
53.96                0.254397201      41.4171852      0.782000748     -53.9615924      0.180924758     -2.92208742     0.0726656387     -170.138274
                     0.782000749     -53.9615924      0.254297003      41.3870951     0.0726373504     -170.119157        0.1809632     -2.93054561
                     0.180924758     -2.92208752     0.0726373504     -170.119157      0.117715414     -2.31775779      0.927525914     -50.3566328
                    0.0726656388     -170.138274        0.1809632     -2.93054568      0.927525914     -50.3566328      0.117778713     -2.32247132
54.1                  0.25539547      41.2821747      0.780839715     -54.1379097       0.18164905     -3.06985756     0.0730448117      -170.24284
                     0.780839715     -54.1379097       0.25529476      41.2521623     0.0730163944      -170.22378      0.181687516     -3.07829974
                      0.18164905     -3.06985766     0.0730163944      -170.22378      0.118119279     -2.38716447      0.926974831     -50.5087826
                    0.0730448118      -170.24284      0.181687516     -3.07829981      0.926974831     -50.5087826      0.118182575      -2.3919263
54.24                0.256397296      41.1465322      0.779675543     -54.3145075      0.182375429     -3.21746539     0.0734264326     -170.347098
                     0.779675544     -54.3145075      0.256296076      41.1165987     0.0733978867     -170.328096      0.182413916     -3.22589156
                     0.182375429      -3.2174655     0.0733978868     -170.328096      0.118523749     -2.45662534      0.926421102     -50.6610729
                    0.0734264327     -170.347098      0.182413916     -3.22589162      0.926421101     -50.6610729       0.11858704     -2.46143541
54.38                 0.25740268      41.0102542      0.778508247     -54.4913858      0.183103895     -3.36491423     0.0738105223     -170.451053
                     0.778508247     -54.4913858       0.25730095      40.9804009     0.0737818483     -170.432109      0.183142403     -3.37332435
                     0.183103895     -3.36491434     0.0737818483     -170.432109      0.118928823     -2.52614093      0.925864728     -50.8135031
                    0.0738105224     -170.451053      0.183142403     -3.37332442      0.925864728     -50.8135031      0.118992106      -2.5309992
54.52                 0.25841162      40.8733374       0.77733784     -54.6685447      0.183834452     -3.51220735     0.0741971017     -170.554707
                      0.77733784     -54.6685446      0.258309383      40.8435654        0.0741683     -170.535821      0.183872978     -3.52060141
                     0.183834452     -3.51220745        0.0741683     -170.535821      0.119334502      -2.5957118      0.925305713     -50.9660728
                    0.0741971018     -170.554707      0.183872979     -3.52060147      0.925305713     -50.9660728      0.119397775      -2.6006182
54.66                0.259424118      40.7357783      0.776164336     -54.8459842      0.184567101     -3.65934801     0.0745861922     -170.658063
                     0.776164336     -54.8459842      0.259321374      40.7060888     0.0745572632     -170.639235      0.184605644     -3.66772598
                     0.184567101     -3.65934811     0.0745572632     -170.639235      0.119740786     -2.66533849      0.924744059     -51.1187815
                    0.0745861923     -170.658063      0.184605644     -3.66772604      0.924744059     -51.1187815      0.119804046     -2.67029298
54.8                 0.260440172      40.5975736      0.774987748     -55.0237045      0.185301843     -3.80633944     0.0749778154     -170.761124
                     0.774987748     -55.0237044      0.260336923      40.5679678     0.0749487595     -170.742355        0.1853404     -3.81470129
                     0.185301843     -3.80633954     0.0749487596     -170.742355      0.120147674     -2.73502154      0.924179769     -51.2716287
                    0.0749778155     -170.761124      0.185340401     -3.81470136      0.924179769     -51.2716287      0.120210919     -2.74002405
54.94                 0.26145978      40.4587198      0.773808092     -55.2017056       0.18603868     -3.95318485      0.075371993     -170.863894
                     0.773808092     -55.2017056      0.261356028      40.4291989     0.0753428108     -170.845183       0.18607725     -3.96153058
                      0.18603868     -3.95318496     0.0753428108     -170.845183      0.120555166     -2.80476148      0.923612847      -51.424614
                    0.0753719931     -170.863894      0.186077251     -3.96153064      0.923612847      -51.424614      0.120618394     -2.80981195
55.08                0.262482943      40.3192135      0.772625381     -55.3799876      0.186777614     -4.09988746     0.0757687472     -170.966374
                     0.772625381     -55.3799876      0.262378689      40.2897787     0.0757394391     -170.947723      0.186816195     -4.10821702
                     0.186777614     -4.09988756     0.0757394392     -170.947723      0.120963263     -2.87455885      0.923043295     -51.5777367
                    0.0757687473     -170.966374      0.186816196     -4.10821709      0.923043295     -51.5777367      0.121026471     -2.87965722
55.22                0.263509657      40.1790513       0.77143963     -55.5585507      0.187518646     -4.24645043     0.0761681004     -171.068569
                      0.77143963     -55.5585507      0.263404903      40.1497037      0.076138667     -171.049977      0.187557237      -4.2547638
                     0.187518646     -4.24645053      0.076138667     -171.049977      0.121371964     -2.94441418      0.922471116     -51.7309965
                    0.0761681004     -171.068569      0.187557237     -4.25476387      0.922471116     -51.7309965       0.12143515     -2.94956037
55.36                0.264539921      40.0382297      0.770250854     -55.7373949      0.188261778     -4.39287692     0.0765700752     -171.170481
                     0.770250854     -55.7373949      0.264434669      40.0089706     0.0765405169     -171.151948      0.188300377     -4.40117407
                     0.188261778     -4.39287703      0.076540517     -171.151948      0.121781269     -3.01432798      0.921896313     -51.8843928
                    0.0765700752     -171.170481      0.188300377     -4.40117414      0.921896313     -51.8843927       0.12184443     -3.01952194
55.5                 0.265573731      39.8967453      0.769059067     -55.9165203      0.189007012     -4.53917007     0.0769746945     -171.272113
                     0.769059067     -55.9165203      0.265467984      39.8675759      0.076945012      -171.25364      0.189045616     -4.54745096
                     0.189007012     -4.53917018     0.0769450121      -171.25364      0.122191178     -3.08430078      0.921318891     -52.0379251
                    0.0769746946     -171.272113      0.189045616     -4.54745103      0.921318891     -52.0379251      0.122254312     -3.08954242
55.64                0.266611085      39.7545948      0.767864285      -56.095927       0.18975435       -4.685333     0.0773819817     -171.373468
                     0.767864285      -56.095927      0.266504844      39.7255161     0.0773521755     -171.355055      0.189792957      -4.6935976
                      0.18975435      -4.6853331     0.0773521756     -171.355055      0.122601692      -3.1543331      0.920738852      -52.191593
                    0.0773819818     -171.373468      0.189792957     -4.69359767      0.920738852      -52.191593      0.122664795     -3.15962235
55.78                0.267651979      39.6117745      0.766666523     -56.2756152      0.190503792      -4.8313688     0.0777919603     -171.474549
                     0.766666523     -56.2756152      0.267545247      39.5827879     0.0777620309     -171.456196      0.190542401     -4.83961708
                     0.190503792     -4.83136891      0.077762031     -171.456196      0.123012808     -3.22442543        0.9201562     -52.3453959
                    0.0777919604     -171.474549      0.190542401     -4.83961715        0.9201562     -52.3453959      0.123075879     -3.22976222
55.92                 0.26869641      39.4682812      0.765465797     -56.4555849       0.19125534     -4.97728056      0.078204654     -171.575359
                     0.765465797     -56.4555849      0.268589188      39.4393878     0.0781746021     -171.557067       0.19129395     -4.98551248
                      0.19125534     -4.97728066     0.0781746022     -171.557067      0.123424529      -3.2945783      0.919570938     -52.4993333
                    0.0782046541     -171.575359       0.19129395     -4.98551255      0.919570938     -52.4993333      0.123487565     -3.29996254
56.06                0.269744373      39.3241114      0.764262121     -56.6358362      0.192008997     -5.12307133     0.0786200871     -171.675901
                     0.764262121     -56.6358362      0.269636664      39.2953123     0.0785899133      -171.65767      0.192047604     -5.13128686
                     0.192008997     -5.12307144     0.0785899133      -171.65767      0.123836853      -3.3647922      0.918983071     -52.6534048
                    0.0786200872     -171.675901      0.192047604     -5.13128693      0.918983071     -52.6534048      0.123899851     -3.37022382
56.2                 0.270795863      39.1792616      0.763055512     -56.8163693      0.192764763     -5.26874416      0.079038284     -171.776179
                     0.763055512     -56.8163693       0.27068767      39.1505581     0.0790079888     -171.758008      0.192803366     -5.27694325
                     0.192764763     -5.26874427     0.0790079888     -171.758008       0.12424978     -3.43506764      0.918392601     -52.8076098
                    0.0790382841     -171.776179      0.192803366     -5.27694332      0.918392601     -52.8076098      0.124312739     -3.44054655
56.34                0.271850875      39.0337284      0.761845986     -56.9971843       0.19352264     -5.41430208     0.0794592693     -171.876194
                     0.761845986     -56.9971843        0.2717422      39.0051217     0.0794288535     -171.858085      0.193561237     -5.42248469
                      0.19352264     -5.41430218     0.0794288535     -171.858085      0.124663311     -3.50540511      0.917799534     -52.9619478
                    0.0794592694     -171.876194      0.193561237     -5.42248476      0.917799534     -52.9619478      0.124726226     -3.51093122
56.48                0.272909403      38.8875083      0.760633558     -57.1782812      0.194282629     -5.55974808     0.0798830683     -171.975951
                     0.760633559     -57.1782812       0.27280025      38.8589996     0.0798525325     -171.957903      0.194321218     -5.56791417
                     0.194282629     -5.55974818     0.0798525325     -171.957903      0.125077445     -3.57580511      0.917203872     -53.1164183
                    0.0798830684     -171.975951      0.194321218     -5.56791424      0.917203872     -53.1164183      0.125140315     -3.58137833
56.62                0.273971441       38.740598      0.759418246     -57.3596603      0.195044732     -5.70508515     0.0803097063     -172.075451
                     0.759418247     -57.3596603      0.273861812      38.7121884     0.0802790511     -172.057465      0.195083311     -5.71323467
                     0.195044732     -5.70508526     0.0802790512     -172.057465      0.125492181     -3.64626811       0.91660562     -53.2710208
                    0.0803097064     -172.075451      0.195083311     -5.71323474       0.91660562     -53.2710208      0.125555003     -3.65188836
56.76                0.275036983       38.592994      0.758200066     -57.5413216       0.19580895     -5.85031626      0.080739209     -172.174699
                     0.758200066     -57.5413215      0.274926881      38.5646847     0.0807084352     -172.156775      0.195847516     -5.85844917
                      0.19580895     -5.85031637     0.0807084353     -172.156775       0.12590752     -3.71679462      0.916004783     -53.4257548
                    0.0807392091     -172.174699      0.195847517     -5.85844924      0.916004783     -53.4257548      0.125970292     -3.72246179
56.9                 0.276106021      38.4446929      0.756979034     -57.7232652      0.196575285     -5.99544437     0.0811716024     -172.273697
                     0.756979034     -57.7232652      0.275995449       38.416485     0.0811407108     -172.255835      0.196613837     -6.00356062
                     0.196575285     -5.99544447     0.0811407109     -172.255835      0.126323462     -3.78738511      0.915401364     -53.5806197
                    0.0811716025     -172.273697      0.196613837     -6.00356069      0.915401364     -53.5806197       0.12638618     -3.79309911
57.04                0.277178547      38.2956912      0.755755167     -57.9054913      0.197343737     -6.14047239     0.0816069131     -172.372447
                     0.755755167     -57.9054913      0.277067509       38.267586     0.0815759043     -172.354648      0.197382273     -6.14857194
                     0.197343737      -6.1404725     0.0815759044     -172.354648      0.126740005     -3.85804005      0.914795368     -53.7356151
                    0.0816069132     -172.372447      0.197382273       -6.148572      0.914795368     -53.7356151      0.126802667     -3.86380079
57.18                0.278254555      38.1459856      0.754528483     -58.0880001      0.198114309     -6.28540326     0.0820451676     -172.470954
                     0.754528483     -58.0880001      0.278143053      38.1179842     0.0820140425     -172.453217      0.198152827     -6.29348604
                     0.198114309     -6.28540337     0.0820140425     -172.453217      0.127157151     -3.92875993      0.914186799     -53.8907404
                    0.0820451677     -172.470954      0.198152827     -6.29348611      0.914186799     -53.8907404      0.127219754      -3.9345673
57.32                0.279334034      37.9955726      0.753298997     -58.2707916      0.198887001     -6.43023986     0.0824863931      -172.56922
                     0.753298998     -58.2707916      0.279222073      37.9676762     0.0824551524     -172.551546      0.198925498     -6.43830582
                     0.198887001     -6.43023997     0.0824551524     -172.551546      0.127574898     -3.99954521      0.913575661     -54.0459952
                    0.0824863932      -172.56922      0.198925498     -6.43830589      0.913575661     -54.0459951       0.12763744     -4.00539911
57.46                0.280416975      37.8444487      0.752066729      -58.453866      0.199661815     -6.57498507      0.082930617     -172.667247
                     0.752066729      -58.453866      0.280304559      37.8166585     0.0828992615     -172.649637      0.199700289     -6.58303417
                     0.199661815     -6.57498518     0.0828992616     -172.649637      0.127993247     -4.07039636      0.912961961     -54.2013788
                    0.0829306171     -172.667247       0.19970029     -6.58303424      0.912961961     -54.2013787      0.128055725     -4.07629668
57.6                  0.28150337      37.6926106      0.750831695     -58.6372234      0.200438751     -6.71964176     0.0833778671      -172.76504
                     0.750831695     -58.6372234      0.281390502      37.6649277     0.0833463977     -172.747493      0.200477201     -6.72767393
                     0.200438751     -6.71964187     0.0833463977     -172.747493      0.128412197     -4.14131385      0.912345701     -54.3568907
                    0.0833778672      -172.76504      0.200477202       -6.727674      0.912345701     -54.3568907      0.128474608     -4.14726048
57.74                0.282593208      37.5400549      0.749593913     -58.8208641      0.201217812     -6.86421277     0.0838281715     -172.862601
                     0.749593913     -58.8208641      0.282479891      37.5124805     0.0837965891     -172.845117      0.201256235     -6.87222795
                     0.201217812     -6.86421288     0.0837965891     -172.845117      0.128831748     -4.21229813      0.911726887     -54.5125305
                    0.0838281716     -172.862601      0.201256236     -6.87222802      0.911726887     -54.5125305      0.128894089     -4.21829096
57.88                0.283686477      37.3867782      0.748353401     -59.0047881      0.201998998     -7.00870093     0.0842815589     -172.959933
                     0.748353401     -59.0047881      0.283572716      37.3593135     0.0842498642     -172.942513      0.202037392     -7.01669907
                     0.201998998     -7.00870104     0.0842498643     -172.942513      0.129251899     -4.28334967      0.911105525     -54.6682976
                     0.084281559     -172.959933      0.202037392     -7.01669913      0.911105525     -54.6682976      0.129314168     -4.28938859
58.02                0.284783167      37.2327771      0.747110177     -59.1889956       0.20278231     -7.15310904      0.084738058     -173.057039
                     0.747110177     -59.1889956      0.284668967      37.2054232     0.0847062521     -173.039683      0.202820673     -7.16109007
                      0.20278231     -7.15310915     0.0847062521     -173.039683      0.129672651     -4.35446892      0.910481618     -54.8241915
                    0.0847380581     -173.057039      0.202820673     -7.16109014      0.910481618     -54.8241915      0.129734845      -4.3605538
58.16                0.285883265      37.0780482      0.745864259     -59.3734867      0.203567749     -7.29743991     0.0851976982     -173.153921
                     0.745864259     -59.3734867       0.28576863      37.0508063     0.0851657819     -173.136631      0.203606079     -7.30540377
                     0.203567749     -7.29744002      0.085165782     -173.136631      0.130094003     -4.42565632      0.909855172     -54.9802116
                    0.0851976983     -173.153922       0.20360608     -7.30540384      0.909855172     -54.9802116      0.130156119     -4.43178706
58.3                  0.28698676      36.9225881      0.744615665     -59.5582617      0.204355317     -7.44169631     0.0856605091     -173.250585
                     0.744615665     -59.5582617      0.286871693      36.8954593     0.0856284835     -173.233358      0.204393612     -7.44964293
                     0.204355317     -7.44169641     0.0856284835     -173.233358      0.130515954     -4.49691233      0.909226193     -55.1363575
                    0.0856605092     -173.250585      0.204393612     -7.44964299      0.909226193     -55.1363574       0.13057799      -4.5030888
58.44                0.288093637      36.7663935      0.743364415     -59.7433206      0.205145014     -7.58588099     0.0861265208     -173.347031
                     0.743364415     -59.7433206      0.287978144       36.739379     0.0860943868     -173.329869      0.205183271      -7.5938103
                     0.205145014      -7.5858811     0.0860943868     -173.329869      0.130938505     -4.56823738      0.908594685     -55.2926285
                    0.0861265209     -173.347031      0.205183272     -7.59381037      0.908594685     -55.2926285      0.131000457     -4.57445946
58.58                0.289203884       36.609461      0.742110527     -59.9286637      0.205936842     -7.72999671     0.0865957638     -173.443263
                     0.742110527     -59.9286637      0.289087969       36.582562     0.0865635224     -173.426167      0.205975059     -7.73790864
                     0.205936842     -7.72999681     0.0865635224     -173.426167      0.131361655     -4.63963193      0.907960654     -55.4490241
                    0.0865957639     -173.443263      0.205975059     -7.73790871      0.907960654     -55.4490241      0.131423521     -4.64589948
58.72                0.290317485      36.4517873      0.740854019     -60.1142912        0.2067308     -7.87404618      0.087068269     -173.539285
                     0.740854019     -60.1142911      0.290201154      36.4250048     0.0870359211     -173.522254      0.206768976     -7.88194067
                       0.2067308     -7.87404629     0.0870359212     -173.522254      0.131785404      -4.7110964      0.907324106     -55.6055439
                    0.0870682691     -173.539285      0.206768976     -7.88194074      0.907324105     -55.6055439       0.13184718     -4.71740931
58.86                0.291434426      36.2933691      0.739594912     -60.3002031      0.207526891     -8.01803213     0.0875440675     -173.635098
                     0.739594912     -60.3002031      0.291317684      36.2667043     0.0875116144     -173.618133      0.207565022      -8.0259091
                     0.207526891     -8.01803224     0.0875116145     -173.618133      0.132209751     -4.78263123      0.906685045     -55.7621873
                    0.0875440676     -173.635098      0.207565022     -8.02590917      0.906685045     -55.7621872      0.132271435     -4.78898936
59                   0.292554691      36.1342029      0.738333223     -60.4863997      0.208325115     -8.16195724     0.0880231912     -173.730707
                     0.738333223     -60.4863997      0.292437543       36.107657     0.0879906339     -173.713808      0.208363199     -8.16981662
                     0.208325115     -8.16195735      0.087990634     -173.713808      0.132634696     -4.85423686      0.906043478     -55.9189536
                    0.0880231913     -173.730707      0.208363199     -8.16981669      0.906043478     -55.9189536      0.132696285     -4.86064007
59.14                0.293678264      35.9742856      0.737068973     -60.6728813      0.209125472      -8.3058242     0.0885056722     -173.826115
                     0.737068973     -60.6728813      0.293560716      35.9478596     0.0884730118     -173.809282      0.209163508      -8.3136659
                     0.209125472     -8.30582431     0.0884730118     -173.809282      0.133060238      -4.9259137      0.905399411     -56.0758425
                    0.0885056723     -173.826115      0.209163508     -8.31366597      0.905399411     -56.0758425       0.13312173     -4.93236186
59.28                0.294805128      35.8136138      0.735802181     -60.8596479      0.209927964     -8.44963566      0.088991543     -173.921323
                     0.735802181     -60.8596479      0.294687185      35.7873089     0.0889587806     -173.904557      0.209965949     -8.45745961
                     0.209927964     -8.44963577     0.0889587807     -173.904557      0.133486378     -4.99766219      0.904752849     -56.2328533
                    0.0889915431     -173.921323      0.209965949     -8.45745968      0.904752848     -56.2328533      0.133547769     -5.00415516
59.42                0.295935266      35.6521842      0.734532867     -61.0466997      0.210732592     -8.59339428     0.0894808367     -174.016336
                     0.734532867     -61.0466997      0.295816933      35.6260016     0.0894479735     -173.999637      0.210770522      -8.6012004
                     0.210732592     -8.59339439     0.0894479736     -173.999637      0.133913114     -5.06948274      0.904103798     -56.3899855
                    0.0894808368     -174.016336      0.210770522     -8.60120047      0.904103798     -56.3899855      0.133974401     -5.07602038
59.56                0.297068658      35.4899936      0.733261051     -61.2340371      0.211539355     -8.73710268     0.0899735867     -174.111157
                     0.733261051     -61.2340371      0.296949942      35.4639344     0.0899406239     -174.094525      0.211577229     -8.74489089
                     0.211539355     -8.73710279      0.089940624     -174.094525      0.134340447     -5.14137578      0.903452264     -56.5472386
                    0.0899735868     -174.111157       0.21157723     -8.74489095      0.903452264     -56.5472386      0.134401627     -5.14795794
59.7                 0.298205286      35.3270388      0.731986752     -61.4216601      0.212348254     -8.88076348     0.0904698268     -174.205788
                     0.731986752     -61.4216601      0.298086193      35.3011039     0.0904367658     -174.189223      0.212386071     -8.88853369
                     0.212348254     -8.88076359     0.0904367658     -174.189223      0.134768375     -5.21334172      0.902798254      -56.704612
                    0.0904698269     -174.205788      0.212386071     -8.88853376      0.902798254      -56.704612      0.134829446     -5.21996825
59.84                0.299345131      35.1633164      0.730709992      -61.609569      0.213159291     -9.02437929     0.0909695916     -174.300233
                     0.730709992      -61.609569      0.299225667      35.1375071     0.0909364335     -174.283735      0.213197047     -9.03213141
                     0.213159291      -9.0243794     0.0909364335     -174.283735      0.135196899     -5.28538096      0.902141773     -56.8621052
                    0.0909695917     -174.300233      0.213197047     -9.03213148      0.902141773     -56.8621052      0.135257857     -5.29205173
59.98                0.300488172      34.9988233       0.72943079      -61.797764      0.213972465     -9.16795268     0.0914729158     -174.394494
                      0.72943079      -61.797764      0.300368343      34.9731407     0.0914396619     -174.378065      0.214010158     -9.17568662
                     0.213972465     -9.16795279      0.091439662     -174.378065      0.135626018     -5.35749393      0.901482828     -57.0197176
                    0.0914729159     -174.394494      0.214010158     -9.17568669      0.901482828     -57.0197175      0.135686861     -5.36420877
60.12                0.301634387      34.8335563      0.728149167     -61.9862454      0.214787777     -9.31148623     0.0919798348     -174.488576
                     0.728149167     -61.9862454      0.301514201      34.8080014     0.0919464864     -174.472214      0.214825405     -9.31920191
                     0.214787777     -9.31148634     0.0919464865     -174.472214      0.136055731     -5.42968102      0.900821426     -57.1774486
                    0.0919798349     -174.488576      0.214825405     -9.31920197      0.900821426     -57.1774486      0.136116456     -5.43643979
60.26                0.302783756      34.6675122      0.726865144     -62.1750133      0.215605228     -9.45498249     0.0924903844      -174.58248
                     0.726865144     -62.1750133      0.302663219      34.6420862     0.0924569429     -174.566187      0.215642788      -9.4626798
                     0.215605228      -9.4549826      0.092456943     -174.566187      0.136486039     -5.50194264      0.900157572     -57.3352978
                    0.0924903845      -174.58248      0.215642788     -9.46267987      0.900157572     -57.3352978      0.136546641     -5.50874517
60.4                 0.303936255      34.5006878      0.725578741     -62.3640679      0.216424818       -9.598444     0.0930046008      -174.67621
                     0.725578741     -62.3640679      0.303815374      34.4753918     0.0929710677     -174.659986      0.216462307     -9.60612286
                     0.216424818     -9.59844411     0.0929710678     -174.659986      0.136916939     -5.57427919      0.899491274     -57.4932645
                    0.0930046009      -174.67621      0.216462307     -9.60612293      0.899491274     -57.4932645      0.136977417     -5.58112533
60.54                0.305091861      34.3330801       0.72428998     -62.5534096      0.217246547     -9.74187328      0.093522521      -174.76977
                      0.72428998     -62.5534096      0.304970644       34.307915     0.0934888976     -174.753615      0.217283963     -9.74953359
                     0.217246547     -9.74187339     0.0934888977     -174.753615      0.137348433     -5.64669107      0.898822538     -57.6513482
                    0.0935225211      -174.76977      0.217283963     -9.74953366      0.898822538     -57.6513482      0.137408784     -5.65358065
60.68                 0.30625055      34.1646858      0.722998882     -62.7430386      0.218070415     -9.88527285     0.0940441822     -174.863161
                     0.722998882     -62.7430386      0.306129004      34.1396529     0.0940104701     -174.847076      0.218107756      -9.8929145
                     0.218070415     -9.88527296     0.0940104701     -174.847076      0.137780519     -5.71917867      0.898151371     -57.8095484
                    0.0940441823     -174.863161      0.218107757     -9.89291457      0.898151371     -57.8095484      0.137840739     -5.72611153
60.82                0.307412297       33.995502      0.721705468      -62.932955      0.218896423     -10.0286452     0.0945696222     -174.956389
                     0.721705468      -62.932955      0.307290429      33.9706022     0.0945358228     -174.940373      0.218933687     -10.0362681
                     0.218896423     -10.0286453     0.0945358229     -174.940373      0.138213198     -5.79174238       0.89747778     -57.9678645
                    0.0945696223     -174.956389      0.218933687     -10.0362682      0.897477779     -57.9678645      0.138273283     -5.79871835
60.96                0.308577076      33.8255255       0.72040976     -63.1231592      0.219724571     -10.1719928     0.0950988795     -175.049454
                      0.72040976     -63.1231592      0.308454894      33.8007599     0.0950649944     -175.033508      0.219761754     -10.1795968
                     0.219724571     -10.1719929     0.0950649945     -175.033508      0.138646467     -5.86438259      0.896801771      -58.126296
                    0.0950988796     -175.049455      0.219761755     -10.1795969      0.896801771      -58.126296      0.138706416      -5.8714015
61.1                 0.309744861      33.6547533      0.719111779     -63.3136514      0.220554859     -10.3153181      0.095631993     -175.142362
                     0.719111779     -63.3136514      0.309622374       33.630123     0.0955980238     -175.126486      0.220591959     -10.3229032
                     0.220554859     -10.3153182     0.0955980238     -175.126486      0.139080327     -5.93709968      0.896123352     -58.2848422
                    0.0956319931     -175.142362       0.22059196     -10.3229033      0.896123352     -58.2848422      0.139140136     -5.94416136
61.24                0.310915625      33.4831825      0.717811547     -63.5044319      0.221387287     -10.4586236      0.096169002     -175.235115
                     0.717811547     -63.5044318       0.31079284      33.4586884     0.0961349503     -175.219309      0.221424302     -10.4661896
                     0.221387287     -10.4586237     0.0961349504     -175.219309      0.139514778     -6.00989404       0.89544253     -58.4435027
                    0.0961690021     -175.235115      0.221424302     -10.4661897       0.89544253     -58.4435026      0.139574444     -6.01699832
61.38                0.312089338      33.3108099      0.716509087     -63.6955009      0.222221855     -10.6019117     0.0967099467     -175.327715
                     0.716509087     -63.6955009      0.311966264      33.2864531     0.0966758142     -175.311981      0.222258782     -10.6094586
                     0.222221855     -10.6019118     0.0966758143     -175.311981      0.139949818     -6.08276605      0.894759312     -58.6022768
                    0.0967099469     -175.327715      0.222258783     -10.6094586      0.894759312     -58.6022768      0.140009338     -6.08991275
61.52                0.313265973      33.1376327       0.71520442     -63.8868587      0.223058563     -10.7451849     0.0972548677     -175.420167
                      0.71520442     -63.8868587      0.313142619      33.1134143      0.097220656     -175.404504        0.2230954     -10.7527124
                     0.223058563      -10.745185     0.0972206561     -175.404504      0.140385447     -6.15571608      0.894073705      -58.761164
                    0.0972548678     -175.420167        0.2230954     -10.7527125      0.894073705      -58.761164      0.140444817     -6.16290502
61.66                  0.3144455      32.9636479      0.713897568     -64.0785056      0.223897411     -10.8884454      0.097803806     -175.512474
                     0.713897568     -64.0785056      0.314321873      32.9395688     0.0977695169     -175.496882      0.223934155     -10.8959536
                     0.223897411     -10.8884456      0.097769517     -175.496882      0.140821665     -6.22874451      0.893385717     -58.9201638
                    0.0978038061     -175.512474      0.223934155     -10.8959537      0.893385717     -58.9201638      0.140880882      -6.2359755
61.8                 0.315627887      32.7888526      0.712588555     -64.2704418      0.224738398     -11.0316959     0.0983568035     -175.604638
                     0.712588555     -64.2704418      0.315503998      32.7649139     0.0983224387     -175.589118      0.224775047     -11.0391845
                     0.224738398      -11.031696     0.0983224388     -175.589118       0.14125847     -6.30185171      0.892695356     -59.0792755
                    0.0983568036     -175.604638      0.224775047     -11.0391846      0.892695356     -59.0792755      0.141317532     -6.30912457
61.94                0.316813104      32.6132439      0.711277402     -64.4626678      0.225581525     -11.1749385     0.0989139024     -175.696663
                     0.711277402     -64.4626678      0.316688961      32.5894466     0.0988794639     -175.681215      0.225618076     -11.1824075
                     0.225581525     -11.1749386      0.098879464     -175.681215      0.141695863     -6.37503805      0.892002628     -59.2384987
                    0.0989139025     -175.696663      0.225618076     -11.1824075      0.892002628     -59.2384987      0.141754766     -6.38235259
62.08                0.318001117      32.4368191      0.709964133     -64.6551837      0.226426792     -11.3181757     0.0994751458     -175.788552
                     0.709964133     -64.6551837       0.31787673      32.4131641     0.0994406354     -175.773177      0.226463242     -11.3256249
                     0.226426792     -11.3181758     0.0994406354     -175.773177      0.142133842     -6.44830389      0.891307542     -59.3978327
                    0.0994751459     -175.788552      0.226463242      -11.325625      0.891307542     -59.3978327      0.142192582     -6.45565992
62.22                0.319191893      32.2595753       0.70864877     -64.8479898      0.227274197     -11.4614098      0.100040577     -175.880309
                      0.70864877     -64.8479898      0.319067272      32.2360636      0.100005997     -175.865007      0.227310543     -11.4688392
                     0.227274197     -11.4614099      0.100005997     -175.865007      0.142572406     -6.52164959      0.890610105      -59.557277
                     0.100040577     -175.880309      0.227310544     -11.4688392      0.890610105      -59.557277      0.142630982     -6.52904692
62.36                0.320385399      32.0815097      0.707331337     -65.0410865      0.228123741     -11.6046432      0.100610241     -175.971937
                     0.707331337     -65.0410865      0.320260553      32.0581423      0.100575592     -175.956707      0.228159981     -11.6120526
                     0.228123741     -11.6046433      0.100575592     -175.956707      0.143011556     -6.59507552      0.889910326      -59.716831
                     0.100610241     -175.971937      0.228159981     -11.6120526      0.889910326      -59.716831      0.143069963     -6.60251395
62.5                 0.321581599      31.9026196      0.706011856     -65.2344741      0.228975423     -11.7478782      0.101184181     -176.063438
                     0.706011856     -65.2344741      0.321456539      31.8793975      0.101149467     -176.048282      0.229011554     -11.7552674
                     0.228975423     -11.7478783      0.101149467     -176.048282      0.143451291     -6.66858203      0.889208211     -59.8764942
                     0.101184182     -176.063438      0.229011554     -11.7552675      0.889208211     -59.8764941      0.143509525     -6.67606137
62.64                0.322780456      31.7229023      0.704690351     -65.4281529      0.229829242     -11.8911171      0.101762445     -176.154817
                     0.704690351     -65.4281529      0.322655192      31.6998264      0.101727666     -176.139735      0.229865261     -11.8984861
                     0.229829242     -11.8911172      0.101727666     -176.139735      0.143891609     -6.74216948       0.88850377     -60.0362659
                     0.101762445     -176.154817      0.229865262     -11.8984861       0.88850377     -60.0362659      0.143949668     -6.74968952
62.78                0.323981934      31.5423552      0.703366845     -65.6221233      0.230685198     -12.0343622      0.102345077     -176.246077
                     0.703366845     -65.6221233      0.323856477      31.5194264      0.102310236     -176.231069      0.230721103     -12.0417107
                     0.230685198     -12.0343623      0.102310236     -176.231069       0.14433251     -6.81583822       0.88779701     -60.1961457
                     0.102345077     -176.246077      0.230721103     -12.0417108      0.887797009     -60.1961457      0.144390391     -6.82339876
62.92                0.325185995      31.3609757      0.702041362     -65.8163854       0.23154329     -12.1776157      0.102932124     -176.337221
                     0.702041362     -65.8163854      0.325060356      31.3381949      0.102897224     -176.322287      0.231579078     -12.1849438
                      0.23154329     -12.1776159      0.102897224     -176.322287      0.144773993      -6.8895886      0.887087939     -60.3561329
                     0.102932124     -176.337221      0.231579079     -12.1849438      0.887087939     -60.3561329      0.144831692     -6.89718943
63.06                  0.3263926      31.1787611      0.700713927     -66.0109398      0.232403517     -12.3208801      0.103523635     -176.428252
                     0.700713926     -66.0109398      0.326266789      31.1561293      0.103488677     -176.413393      0.232439186     -12.3281874
                     0.232403517     -12.3208802      0.103488677     -176.413393      0.145216058     -6.96342096      0.886376566     -60.5162269
                     0.103523635     -176.428252      0.232439186     -12.3281875      0.886376566     -60.5162269      0.145273572     -6.97106187
63.2                 0.327601709      30.9957089      0.699384561     -66.2057868       0.23326588     -12.4641574      0.104119656     -176.519174
                     0.699384561     -66.2057868      0.327475738       30.973227      0.104084643      -176.50439      0.233301426     -12.4714439
                      0.23326588     -12.4641575      0.104084644      -176.50439      0.145658703     -7.03733564      0.885662899     -60.6764273
                     0.104119656     -176.519174      0.233301426      -12.471444      0.885662899     -60.6764273      0.145716028     -7.04501643
63.34                0.328813281      30.8118167      0.698053291     -66.4009266      0.234130376     -12.6074499      0.104720238      -176.60999
                     0.698053291     -66.4009266      0.328687161      30.7894855      0.104685172     -176.595282      0.234165796     -12.6147156
                     0.234130376       -12.60745      0.104685173     -176.595282      0.146101928       -7.111333      0.884946947     -60.8367334
                     0.104720238      -176.60999      0.234165797     -12.6147156      0.884946946     -60.8367334      0.146159062     -7.11905344
63.48                0.330027274      30.6270819      0.696720139     -66.5963597      0.234997004       -12.75076       0.10532543     -176.700703
                     0.696720139     -66.5963597      0.329901018      30.6049024      0.105290314     -176.686071      0.235032297     -12.7580045
                     0.234997004     -12.7507601      0.105290314     -176.686071      0.146545733     -7.18541336      0.884228717     -60.9971447
                      0.10532543     -176.700703      0.235032297     -12.7580046      0.884228717     -60.9971447      0.146602671     -7.19317325
63.62                0.331243645      30.4415023      0.695385131     -66.7920864      0.235865765     -12.8940897      0.105935282     -176.791318
                     0.695385131     -66.7920864      0.331117264      30.4194752      0.105900118     -176.776762      0.235900926      -12.901313
                     0.235865765     -12.8940898      0.105900118     -176.776762      0.146990116     -7.25957707       0.88350822     -61.1576605
                     0.105935282     -176.791318      0.235900927     -12.9013131       0.88350822     -61.1576605      0.147046855     -7.26737617
63.76                0.332462351      30.2550753       0.69404829     -66.9881071      0.236736656     -13.0374413      0.106549846     -176.881836
                      0.69404829     -66.9881071      0.332335857      30.2332016      0.106514636     -176.867358      0.236771684     -13.0446432
                     0.236736656     -13.0374414      0.106514636     -176.867358      0.147435076     -7.33382445      0.882785462     -61.3182804
                     0.106549846     -176.881836      0.236771684     -13.0446433      0.882785462     -61.3182804      0.147491614     -7.34166255
63.9                 0.333683346      30.0677988      0.692709642     -67.1844221      0.237609677      -13.180817      0.107169172     -176.972263
                     0.692709642     -67.1844221      0.333556752      30.0460793      0.107133919     -176.957862      0.237644568     -13.1879974
                     0.237609677     -13.1808171      0.107133919     -176.957862      0.147880613     -7.40815584      0.882060454     -61.4790037
                     0.107169173     -176.972263      0.237644568     -13.1879975      0.882060454     -61.4790037      0.147936945     -7.41603271
64.04                0.334906584      29.8796705      0.691369211     -67.3810319      0.238484825     -13.3242189      0.107793315     -177.062601
                     0.691369211     -67.3810319      0.334779903       29.858106      0.107758022     -177.048277      0.238519577     -13.3313777
                     0.238484825     -13.3242191      0.107758022     -177.048277      0.148326726     -7.48257156      0.881333205     -61.6398299
                     0.107793315     -177.062601      0.238519577     -13.3313778      0.881333205     -61.6398298      0.148382849     -7.49048698
64.18                0.336132018      29.6906881      0.690027022     -67.5779369      0.239362101     -13.4676493      0.108422328     -177.152854
                     0.690027021     -67.5779369      0.336005263      29.6692794      0.108386996     -177.138608       0.23939671     -13.4747862
                     0.239362101     -13.4676494      0.108386996     -177.138608      0.148773413     -7.55707194      0.880603722     -61.8007583
                     0.108422328     -177.152854      0.239396711     -13.4747863      0.880603722     -61.8007583      0.148829324     -7.56502568
64.32                0.337359601      29.5008496      0.688683099     -67.7751374      0.240241503     -13.6111102      0.109056264     -177.243026
                     0.688683099     -67.7751374      0.337232785      29.4795974      0.109020897     -177.228858      0.240275966     -13.6182252
                     0.240241503     -13.6111104      0.109020897     -177.228858      0.149220675      -7.6316573      0.879872015     -61.9617884
                     0.109056264     -177.243026      0.240275967     -13.6182252      0.879872015     -61.9617884       0.14927637     -7.63964912
64.46                0.338589283      29.3101527      0.687337469     -67.9726339      0.241123028     -13.7546039      0.109695179     -177.333119
                     0.687337469     -67.9726339      0.338462419       29.289058       0.10965978      -177.31903      0.241157343     -13.7616967
                     0.241123028      -13.754604       0.10965978      -177.31903       0.14966851     -7.70632796      0.879138094     -62.1229197
                     0.109695179     -177.333119      0.241157344     -13.7616967      0.879138094     -62.1229197      0.149723986     -7.71435763
64.6                 0.339821013      29.1185956      0.685990156     -68.1704267      0.242006676     -13.8981324      0.110339129     -177.423138
                     0.685990156     -68.1704267      0.339694117      29.0976589        0.1103037     -177.409128       0.24204084     -13.9052028
                     0.242006676     -13.8981325        0.1103037     -177.409128      0.150116917     -7.78108425      0.878401967     -62.2841516
                     0.110339129     -177.423138       0.24204084     -13.9052029      0.878401967     -62.2841515       0.15017217     -7.78915152
64.74                0.341054741      28.9261761      0.684641186     -68.3685164      0.242892445     -14.0416978       0.11098817     -177.513086
                     0.684641186     -68.3685164      0.340927825      28.9053983      0.110952715     -177.499156      0.242926455     -14.0487458
                     0.242892445     -14.0416979      0.110952715     -177.499156      0.150565895     -7.85592646      0.877663644     -62.4454834
                      0.11098817     -177.513086      0.242926455     -14.0487459      0.877663643     -62.4454834      0.150620922      -7.8640311
64.88                0.342290414      28.7328923      0.683290585     -68.5669032      0.243780333     -14.1853022      0.111642361     -177.602967
                     0.683290585     -68.5669032      0.342163493      28.7122742      0.111606883     -177.589117      0.243814185     -14.1923276
                     0.243780333     -14.1853024      0.111606883     -177.589117      0.151015444     -7.93085492      0.876923133     -62.6069146
                     0.111642361     -177.602967      0.243814186     -14.1923277      0.876923133     -62.6069146      0.151070241     -7.93899668
65.02                0.343527979      28.5387425      0.681938377     -68.7655877      0.244670338     -14.3289478       0.11230176     -177.692785
                     0.681938377     -68.7655877      0.343401068      28.5182846      0.112266261     -177.679015       0.24470403     -14.3359504
                     0.244670338     -14.3289479      0.112266261     -177.679015      0.151465562     -8.00586994      0.876180446     -62.7684446
                      0.11230176     -177.692785      0.244704031     -14.3359505      0.876180446     -62.7684446      0.151520125     -8.01404857
65.16                0.344767381      28.3437247      0.680584589     -68.9645703      0.245562458     -14.4726366      0.112966427     -177.782542
                     0.680584589     -68.9645703      0.344640494      28.3234278       0.11293091     -177.768853      0.245595988     -14.4796162
                     0.245562458     -14.4726367       0.11293091     -177.768853      0.151916248     -8.08097182      0.875435591     -62.9300729
                     0.112966427     -177.782542      0.245595988     -14.4796163       0.87543559     -62.9300729      0.151970575     -8.08918708
65.3                 0.346008564      28.1478372      0.679229247     -69.1638514      0.246456693     -14.6163706      0.113636421     -177.872244
                     0.679229247     -69.1638514      0.345881716      28.1277021       0.11360089     -177.858636      0.246490056     -14.6233271
                     0.246456693     -14.6163708       0.11360089     -177.858636      0.152367502     -8.15616087      0.874688577     -63.0917988
                     0.113636421     -177.872244      0.246490056     -14.6233272      0.874688577     -63.0917988      0.152421588      -8.1644125
65.44                0.347251471      27.9510784      0.677872376     -69.3634316      0.247353038      -14.760152      0.114311804     -177.961893
                     0.677872376     -69.3634316      0.347124678      27.9311056      0.114276263     -177.948366      0.247386232     -14.7670851
                     0.247353038     -14.7601521      0.114276263     -177.948366      0.152819322     -8.23143738      0.873939415     -63.2536219
                     0.114311804     -177.961893      0.247386232     -14.7670852      0.873939415     -63.2536219      0.152873164     -8.23972513
65.58                0.348496045      27.7534466      0.676514004     -69.5633112      0.248251493     -14.9039827      0.114992639     -178.051493
                     0.676514004     -69.5633112      0.348369323      27.7336368       0.11495709     -178.038049      0.248284515     -14.9108923
                     0.248251493     -14.9039828       0.11495709     -178.038049      0.153271707     -8.30680167      0.873188114     -63.4155414
                     0.114992639     -178.051493      0.248284515     -14.9108924      0.873188114     -63.4155414      0.153325302     -8.31512528
65.72                0.349742226      27.5549403      0.675154155     -69.7634908      0.249152055     -15.0478647      0.115678989     -178.141048
                     0.675154155     -69.7634907       0.34961559      27.5352941      0.115643436     -178.127687      0.249184901     -15.0547506
                     0.249152055     -15.0478648      0.115643436     -178.127687      0.153724657     -8.38225402      0.872434684     -63.5775569
                     0.115678989     -178.141048      0.249184901     -15.0547507      0.872434684     -63.5775568         0.153778     -8.39061323
65.86                0.350989953       27.355558      0.673792858     -69.9639707      0.250054721     -15.1918001      0.116370918     -178.230563
                     0.673792857     -69.9639707      0.350863421       27.336076      0.116335364     -178.217284      0.250087389     -15.1986622
                     0.250054721     -15.1918003      0.116335364     -178.217284       0.15417817     -8.45779473      0.871679135     -63.7396677
                     0.116370918     -178.230563      0.250087389     -15.1986623      0.871679135     -63.7396676      0.154231258     -8.46618928
66                   0.352239166      27.1552983      0.672430137     -70.1647516       0.25095949     -15.3357909      0.117068491      -178.32004
                     0.672430137     -70.1647516      0.352112753       27.135981       0.11703294     -178.306845      0.250991977     -15.3426289
                      0.25095949     -15.3357911       0.11703294     -178.306845      0.154632245     -8.53342409      0.870921477     -63.9018732
                     0.117068491      -178.32004      0.250991977      -15.342629      0.870921477     -63.9018732      0.154685075     -8.54185371
66.14                0.353489802      26.9541598       0.67106602     -70.3658339      0.251866359     -15.4798391      0.117771774     -178.409483
                      0.67106602     -70.3658339      0.353363525      26.9350079       0.11773623     -178.396373       0.25189866     -15.4866528
                     0.251866359     -15.4798392      0.117736231     -178.396373      0.155086881     -8.60914239      0.870161721      -64.064173
                     0.117771774     -178.409483      0.251898661     -15.4866529      0.870161721      -64.064173      0.155139449     -8.61760682
66.28                0.354741797      26.7521412      0.669700533     -70.5672181      0.252775325     -15.6239465      0.118480836     -178.498898
                     0.669700533     -70.5672181      0.354615674      26.7331553      0.118445303     -178.485872      0.252807439     -15.6307359
                     0.252775325     -15.6239467      0.118445303     -178.485872      0.155542078     -8.68494993      0.869399876     -64.2265663
                     0.118480836     -178.498898      0.252807439      -15.630736      0.869399876     -64.2265663      0.155594379     -8.69344888
66.42                0.355995086      26.5492415      0.668333704     -70.7689047      0.253686385     -15.7681153      0.119195744     -178.588287
                     0.668333704     -70.7689047      0.355869133       26.530422      0.119160225     -178.575346      0.253718308       -15.77488
                     0.253686385     -15.7681154      0.119160225     -178.575346      0.155997833     -8.76084697      0.868635952     -64.3890527
                     0.119195744     -178.588287      0.253718308     -15.7748801      0.868635952     -64.3890527      0.156049865     -8.76938019
66.56                0.357249602      26.3454594      0.666965559     -70.9708943      0.254599538     -15.9123473      0.119916568     -178.677654
                     0.666965559     -70.9708943      0.357123838      26.3268068      0.119881068     -178.664799      0.254631266     -15.9190872
                     0.254599538     -15.9123474      0.119881068     -178.664799      0.156454146     -8.83683382       0.86786996     -64.5516316
                     0.119916568     -178.677654      0.254631266     -15.9190873       0.86786996     -64.5516315      0.156505904     -8.84540101
66.7                 0.358505279       26.140794      0.665596126     -71.1731873      0.255514779     -16.0566445      0.120643379     -178.767004
                     0.665596126     -71.1731873      0.358379721      26.1223088      0.120607901     -178.754235       0.25554631     -16.0633593
                     0.255514779     -16.0566446      0.120607901     -178.754235      0.156911015     -8.91291073      0.867101911     -64.7143022
                     0.120643379     -178.767004       0.25554631     -16.0633594      0.867101911     -64.7143022      0.156962496     -8.92151163
66.84                0.359762048      25.9352442      0.664225431     -71.3757843      0.256432106     -16.2010087      0.121376249     -178.856341
                     0.664225431     -71.3757843      0.359636715      25.9169269      0.121340797     -178.843658      0.256463436     -16.2076984
                     0.256432106     -16.2010088      0.121340797     -178.843658       0.15736844       -8.989078      0.866331814     -64.8770642
                     0.121376249     -178.856341      0.256463436     -16.2076984      0.866331814     -64.8770642       0.15741964     -8.99771231
66.98                0.361019839      25.7288092      0.662853502     -71.5786859      0.257351515      -16.345442      0.122115249     -178.945668
                     0.662853502     -71.5786859      0.360894749      25.7106602      0.122079828     -178.933073      0.257382642     -16.3521062
                     0.257351515     -16.3454421      0.122079828     -178.933073      0.157826419      -9.0653359       0.86555968     -65.0399169
                      0.12211525     -178.945669      0.257382642     -16.3521063       0.86555968     -65.0399169      0.157877335     -9.07400334
67.12                0.362278582      25.5214882      0.661480367     -71.7818926      0.258273005     -16.4899461      0.122860456     -179.034991
                     0.661480367     -71.7818926      0.362153753      25.5035079       0.12282507     -179.022483      0.258303924     -16.4965847
                     0.258273005     -16.4899462       0.12282507     -179.022483       0.15828495     -9.14168469      0.864785521     -65.2028597
                     0.122860456     -179.034991      0.258303924     -16.4965848      0.864785521     -65.2028596      0.158335578     -9.15038498
67.26                0.363538203      25.3132805      0.660106053      -71.985405       0.25919657      -16.634523      0.123611943     -179.124312
                     0.660106052     -71.9854049      0.363413655      25.2954693      0.123576597     -179.111892      0.259227279     -16.6411358
                      0.25919657     -16.6345232      0.123576597     -179.111892      0.158744034     -9.21812465      0.864009346      -65.365892
                     0.123611944     -179.124312       0.25922728     -16.6411359      0.864009346      -65.365892       0.15879437     -9.22685749
67.4                  0.36479863      25.1041855      0.658730587     -72.1892235      0.260122209     -16.7791746      0.124369788     -179.213636
                     0.658730586     -72.1892235      0.364674382      25.0865437      0.124334486     -179.201306      0.260152704     -16.7857614
                     0.260122209     -16.7791748      0.124334486     -179.201306      0.159203668     -9.29465605      0.863231167     -65.5290133
                     0.124369789     -179.213636      0.260152705     -16.7857614      0.863231167     -65.5290133      0.159253708     -9.30342115
67.54                0.366059787      24.8942026      0.657353997     -72.3933489      0.261049917     -16.9239028      0.125134069     -179.302968
                     0.657353997     -72.3933489      0.365935859      24.8767306      0.125098815     -179.290727      0.261080196     -16.9304632
                     0.261049917     -16.9239029      0.125098815     -179.290727      0.159663852     -9.37127915      0.862450993     -65.6922229
                     0.125134069     -179.302968      0.261080196     -16.9304633      0.862450993     -65.6922229      0.159713592     -9.38007621
67.68                  0.3673216      24.6833313      0.655976312     -72.5977817      0.261979691     -17.0687092      0.125904864     -179.392312
                     0.655976311     -72.5977817      0.367198012      24.6660294      0.125869663     -179.380161      0.262009749     -17.0752432
                     0.261979691     -17.0687094      0.125869664     -179.380161      0.160124583     -9.44799421      0.861668837     -65.8555204
                     0.125904864     -179.392312       0.26200975     -17.0752433      0.861668837     -65.8555204      0.160174019     -9.45682293
67.82                0.368583991      24.4715714      0.654597558     -72.8025224      0.262911527     -17.2135959      0.126682254     -179.481672
                     0.654597558     -72.8025224      0.368460763      24.4544399      0.126647112     -179.469611      0.262941362     -17.2201032
                     0.262911527     -17.2135961      0.126647112     -179.469611      0.160585861      -9.5248015       0.86088471      -66.018905
                     0.126682254     -179.481672      0.262941362     -17.2201033       0.86088471      -66.018905       0.16063499     -9.53366158
67.96                0.369846882      24.2589226      0.653217765     -73.0075718      0.263845422     -17.3585647      0.127466321     -179.571052
                     0.653217765     -73.0075718      0.369724035      24.2419617      0.127431242     -179.559083       0.26387503      -17.365045
                     0.263845422     -17.3585648      0.127431242     -179.559083      0.161047685     -9.60170126      0.860098621     -66.1823763
                     0.127466321     -179.571052       0.26387503     -17.3650451      0.860098621     -66.1823763      0.161096502      -9.6105924
68.1                 0.371110193      24.0453846       0.65183696     -73.2129303      0.264781371     -17.5036172      0.128257148     -179.660457
                      0.65183696     -73.2129303      0.370987748      24.0285947      0.128222137     -179.648579      0.264810748     -17.5100705
                     0.264781371     -17.5036173      0.128222137     -179.648579      0.161510053     -9.67869376      0.859310583     -66.3459337
                     0.128257148     -179.660457      0.264810749     -17.5100705      0.859310583     -66.3459337      0.161558555     -9.68761564
68.24                0.372373844      23.8309574      0.650455172     -73.4185987       0.26571937     -17.6487554       0.12905482     -179.749892
                     0.650455172     -73.4185986      0.372251821      23.8143386      0.129019882     -179.738106      0.265748514     -17.6551813
                      0.26571937     -17.6487555      0.129019883     -179.738106      0.161972963     -9.75577925      0.858520606     -66.5095765
                      0.12905482     -179.749892      0.265748515     -17.6551814      0.858520606     -66.5095765      0.162021146     -9.76473157
68.38                0.373637753      23.6156411      0.649072429     -73.6245775      0.266659416     -17.7939811      0.129859422      -179.83936
                     0.649072429     -73.6245774      0.373516174      23.5991936      0.129824563     -179.827668      0.266688323     -17.8003793
                     0.266659416     -17.7939812      0.129824564     -179.827668      0.162436415     -9.83295798      0.857728702     -66.6733043
                     0.129859422      -179.83936      0.266688323     -17.8003794      0.857728702     -66.6733042      0.162484275     -9.84194042
68.52                0.374901836      23.3994357      0.647688759     -73.8308673      0.267601504     -17.9392959      0.130671042     -179.928867
                     0.647688759     -73.8308673      0.374780722      23.3831596      0.130636268     -179.917268      0.267630171     -17.9456664
                     0.267601504      -17.939296      0.130636268     -179.917268      0.162900406     -9.91023019      0.856934882     -66.8371163
                     0.130671042     -179.928867      0.267630171     -17.9456664      0.856934882     -66.8371163      0.162947939     -9.91924244
68.66                 0.37616601      23.1823415      0.646304191     -74.0374689      0.268545629     -18.0847017      0.131489769      179.981583
                     0.646304191     -74.0374689      0.376045383       23.166237      0.131455085      179.993087      0.268574052     -18.0910441
                     0.268545629     -18.0847018      0.131455085      179.993087      0.163364937     -9.98759613      0.856139158     -67.0010121
                     0.131489769      179.981583      0.268574053     -18.0910442      0.856139158      -67.001012      0.163412139     -9.99663787
68.8                 0.377430188      22.9643587      0.644918753     -74.2443829      0.269491788     -18.2302002      0.132315693      179.891986
                     0.644918753     -74.2443829      0.377310071       22.948426      0.132281105      179.903395      0.269519964     -18.2365143
                     0.269491788     -18.2302004      0.132281105      179.903395      0.163830004     -10.0650561      0.855341541      -67.164991
                     0.132315693      179.891986      0.269519964     -18.2365144      0.855341541      -67.164991      0.163876871     -10.0741269
68.94                0.378694284       22.745488      0.643532475     -74.4516099      0.270439976     -18.3757932      0.133148907      179.802336
                     0.643532475     -74.4516099      0.378574699       22.729727       0.13311442      179.813649      0.270467901     -18.3820788
                     0.270439976     -18.3757933       0.13311442      179.813649      0.164295607     -10.1426102      0.854542042     -67.3290525
                     0.133148907      179.802336      0.270467901     -18.3820789      0.854542042     -67.3290524      0.164342136     -10.1517099
69.08                0.379958209      22.5257297      0.642145385     -74.6591506      0.271390187     -18.5214824      0.133989503      179.712628
                     0.642145384     -74.6591506       0.37983918      22.5101405      0.133955124      179.723845      0.271417858     -18.5277392
                     0.271390187     -18.5214825      0.133955124      179.723845      0.164761745     -10.2202588      0.853740674      -67.493196
                     0.133989503      179.712628      0.271417859     -18.5277393      0.853740674     -67.4931959      0.164807931      -10.229387
69.22                0.381221875      22.3050844      0.640757511     -74.8670057      0.272342418     -18.6672695      0.134837577      179.622859
                     0.640757511     -74.8670057      0.381103424      22.2896671      0.134803312      179.633979      0.272369831     -18.6734972
                     0.272342418     -18.6672696      0.134803312      179.633979      0.165228415      -10.298002      0.852937447     -67.6574209
                     0.134837578      179.622859      0.272369832     -18.6734973      0.852937447     -67.6574209      0.165274254     -10.3071585
69.36                0.382485191      22.0835531      0.639368884     -75.0751759      0.273296663     -18.8131562      0.135693227      179.533022
                     0.639368883     -75.0751759      0.382367342      22.0683075      0.135659081      179.544045      0.273323815     -18.8193547
                     0.273296663     -18.8131563      0.135659081      179.544045      0.165695617     -10.3758402      0.852132374     -67.8217266
                     0.135693227      179.533022      0.273323815     -18.8193547      0.852132374     -67.8217266      0.165741105     -10.3850245
69.5                 0.383748066      21.8611365      0.637979531     -75.2836619      0.274252917     -18.9591441      0.136556549      179.443114
                     0.637979531     -75.2836619      0.383630841      21.8460627       0.13652253      179.454038      0.274279805     -18.9653131
                     0.274252917     -18.9591443       0.13652253      179.454038      0.166163348     -10.4537736      0.851325467     -67.9861126
                     0.136556549      179.443114      0.274279805     -18.9653132      0.851325467     -67.9861126      0.166208482     -10.4629854
69.64                0.385010406      21.6378355      0.636589483     -75.4924643      0.275211175     -19.1052351      0.137427645      179.353129
                     0.636589483     -75.4924643       0.38489383      21.6229334      0.137393759      179.363953      0.275237795     -19.1113743
                     0.275211175     -19.1052352      0.137393759      179.363953      0.166631608     -10.5318023      0.850516737     -68.1505783
                     0.137427646      179.353129      0.275237795     -19.1113744      0.850516736     -68.1505783      0.166676382     -10.5410413
69.78                0.386272117      21.4136514      0.635198768      -75.701584      0.276171431     -19.2514307      0.138306617      179.263062
                     0.635198768     -75.7015839      0.386156215      21.3989209       0.13827287      179.273786       0.27619778     -19.2575398
                     0.276171431     -19.2514308       0.13827287      179.273786      0.167100394     -10.6099266      0.849706195     -68.3151231
                     0.138306617      179.263062       0.27619778     -19.2575399      0.849706195     -68.3151231      0.167144806     -10.6191924
69.92                0.387533105      21.1885852      0.633807416     -75.9110215      0.277133681     -19.3977325      0.139193568      179.172908
                     0.633807415     -75.9110215      0.387417901      21.1740261      0.139159968      179.183531      0.277159754     -19.4038114
                     0.277133681     -19.3977327      0.139159968      179.183531      0.167569706     -10.6881468      0.848893855     -68.4797465
                     0.139193568      179.172907      0.277159754     -19.4038115      0.848893855     -68.4797465      0.167613751     -10.6974391
70.06                0.388793272      20.9626384      0.632415455     -76.1207777      0.278097919     -19.5441423      0.140088604      179.082661
                     0.632415455     -76.1207777      0.388678791      20.9482505      0.140055157      179.093183      0.278123713     -19.5501907
                     0.278097919     -19.5441425      0.140055157      179.093183      0.168039541      -10.766463      0.848079728     -68.6444478
                     0.140088604      179.082661      0.278123713     -19.5501908      0.848079728     -68.6444478      0.168083215     -10.7757814
70.2                 0.390052522      20.7358123      0.631022917     -76.3308533      0.279064138     -19.6906617      0.140991832      178.992317
                     0.631022917     -76.3308533      0.389938788      20.7215955      0.140958546      179.002737       0.27908965     -19.6966793
                     0.279064138     -19.6906618      0.140958546      179.002737      0.168509899     -10.8448755      0.847263827     -68.8092264
                     0.140991832      178.992317      0.279089651     -19.6966793      0.847263827     -68.8092264      0.168553197     -10.8542197
70.34                0.391310755      20.5081085      0.629629829      -76.541249      0.280032334     -19.8372923      0.141903362       178.90187
                     0.629629829      -76.541249      0.391197794      20.4940625      0.141870244      178.912187       0.28005756     -19.8432787
                     0.280032334     -19.8372924      0.141870244      178.912187      0.168980777     -10.9233845      0.846446163     -68.9740819
                     0.141903362       178.90187       0.28005756     -19.8432788      0.846446163     -68.9740819      0.169023696     -10.9327541
70.48                0.392567871      20.2795287      0.628236222     -76.7519657        0.2810025     -19.9840356      0.142823304      178.811315
                     0.628236222     -76.7519657      0.392455709      20.2656532      0.142790363      178.821527      0.281027437     -19.9899907
                       0.2810025     -19.9840357      0.142790363      178.821527      0.169452173     -11.0019902      0.845626749     -69.1390136
                     0.142823305      178.811315      0.281027437     -19.9899908      0.845626749     -69.1390136      0.169494709     -11.0113849
70.62                0.393823771      20.0500747      0.626842126      -76.963004       0.28197463     -20.1308933      0.143751774      178.720646
                     0.626842126      -76.963004      0.393712432      20.0363694      0.143719016      178.730754      0.281999274     -20.1368168
                      0.28197463     -20.1308934      0.143719016      178.730754      0.169924087     -11.0806928      0.844805596      -69.304021
                     0.143751774      178.720646      0.281999274     -20.1368169      0.844805596      -69.304021      0.169966235     -11.0901122
70.76                0.395078351      19.8197484       0.62544757     -77.1743647      0.282948719      -20.277867      0.144688885      178.629857
                      0.62544757     -77.1743647      0.394967862       19.806213      0.144656318       178.63986      0.282973065     -20.2837586
                     0.282948719     -20.2778671      0.144656318       178.63986      0.170396516     -11.1594925      0.843982719     -69.4691035
                     0.144688885      178.629857      0.282973066     -20.2837587      0.843982719     -69.4691035      0.170438273     -11.1689362
70.9                 0.396331507      19.5885518      0.624052584     -77.3860487      0.283924758     -20.4249582      0.145634755      178.538944
                     0.624052584     -77.3860487      0.396221895       19.575186      0.145602388       178.54884      0.283948805     -20.4308176
                     0.283924758     -20.4249583      0.145602388       178.54884      0.170869459     -11.2383895      0.843158127     -69.6342604
                     0.145634755      178.538944      0.283948805     -20.4308177      0.843158127     -69.6342604       0.17091082     -11.2478573
71.04                0.397583137      19.3564873      0.622657198     -77.5980567      0.284902743     -20.5721685      0.146589504        178.4479
                     0.622657197     -77.5980567      0.397474428      19.3432906      0.146557345      178.457689      0.284926486     -20.5779954
                     0.284902743     -20.5721686      0.146557345      178.457689      0.171342914     -11.3173841      0.842331836     -69.7994913
                     0.146589504        178.4479      0.284926486     -20.5779955      0.842331836     -69.7994913      0.171383875     -11.3268755
71.18                0.398833134       19.123557      0.621261441     -77.8103896      0.285882667     -20.7194994      0.147553254       178.35672
                     0.621261441     -77.8103896      0.398725354      19.1105289      0.147521311        178.3664      0.285906102     -20.7252936
                     0.285882667     -20.7194995      0.147521312        178.3664       0.17181688     -11.3964764      0.841503855     -69.9647956
                     0.147553254       178.35672      0.285906102     -20.7252937      0.841503855     -69.9647956      0.171857436      -11.405991
71.32                0.400081391      18.8897634      0.619865345     -78.0230481      0.286864523     -20.8669524      0.148526128      178.265398
                     0.619865345     -78.0230481      0.399974569      18.8769035      0.148494411      178.274969      0.286887646     -20.8727136
                     0.286864523     -20.8669525      0.148494411      178.274969      0.172291354     -11.4756666        0.8406742     -70.1301727
                     0.148526128      178.265398      0.286887646     -20.8727137        0.8406742     -70.1301727      0.172331501     -11.4852041
71.46                0.401327802      18.6551091      0.618468939     -78.2360331      0.287848303     -21.0145291      0.149508253      178.173927
                     0.618468939     -78.2360331      0.401221963      18.6424169      0.149476771      178.183388      0.287871111     -21.0202571
                     0.287848303     -21.0145292      0.149476771      178.183388      0.172766334      -11.554955      0.839842881      -70.295622
                     0.149508253      178.173927      0.287871112     -21.0202571      0.839842881      -70.295622      0.172806069      -11.564515
71.6                 0.402572257      18.4195968      0.617072253     -78.4493453      0.288834001      -21.162231      0.150499758      178.082302
                     0.617072253     -78.4493453       0.40246743      18.4070717      0.150468519      178.091652      0.288856491     -21.1679254
                     0.288834001     -21.1622311      0.150468519      178.091652       0.17324182     -11.6343417      0.839009912      -70.461143
                     0.150499758      178.082302      0.288856491     -21.1679254      0.839009912      -70.461143      0.173281138     -11.6439238
71.74                0.403814647      18.1832293      0.615675318     -78.6629857      0.289821611     -21.3100596      0.151500774      177.990517
                     0.615675318     -78.6629857      0.403710859      18.1708707      0.151469788      177.999755      0.289843778       -21.31572
                     0.289821611     -21.3100597      0.151469788      177.999755      0.173717809     -11.7138269      0.838175305      -70.626735
                     0.151500774      177.990517      0.289843778     -21.3157201      0.838175305      -70.626735      0.173756706     -11.7234308
71.88                0.405054861      17.9460096      0.614278164     -78.8769551      0.290811123     -21.4580163      0.152511433      177.898566
                     0.614278163     -78.8769551       0.40495214       17.933817       0.15248071      177.907691      0.290832964     -21.4636426
                     0.290811123     -21.4580164       0.15248071      177.907691        0.1741943     -11.7934109      0.837339074     -70.7923976
                     0.152511433      177.898566      0.290832965     -21.4636426      0.837339074     -70.7923976      0.174232771      -11.803036
72.02                0.406292788      17.7079409       0.61288082     -79.0912544      0.291802532     -21.6061027      0.153531873      177.806442
                      0.61288082     -79.0912544      0.406191161      17.6959135      0.153501422      177.815453      0.291824043     -21.6116944
                     0.291802532     -21.6061028      0.153501422      177.815453       0.17467129     -11.8730937       0.83650123     -70.9581302
                     0.153531873      177.806442      0.291824044     -21.6116945       0.83650123     -70.9581301      0.174709331     -11.8827398
72.16                0.407528314      17.4690264      0.611483319     -79.3058844       0.29279583     -21.7543201      0.154562231      177.714138
                     0.611483319     -79.3058843      0.407427811      17.4571635      0.154532063      177.723034      0.292817007     -21.7598771
                      0.29279583     -21.7543202      0.154532063      177.723034      0.175148777     -11.9528756      0.835661788     -71.1239321
                     0.154562232      177.714138      0.292817007     -21.7598771      0.835661788     -71.1239321      0.175186384     -11.9625423
72.3                 0.408761326      17.2292694      0.610085689     -79.5208459      0.293791008       -21.90267       0.15560265      177.621649
                     0.610085689     -79.5208459      0.408661975      17.2175703      0.155572774      177.630429      0.293811848     -21.9081919
                     0.293791008     -21.9026701      0.155572774      177.630429      0.175626761     -12.0327568      0.834820759     -71.2898028
                      0.15560265      177.621649      0.293811848      -21.908192      0.834820759     -71.2898028      0.175663929     -12.0424436
72.44                 0.40999171      16.9886736      0.608687963     -79.7361399      0.294788059     -22.0511539      0.156653271      177.528968
                     0.608687962     -79.7361399       0.40989354      16.9771374      0.156623699      177.537631      0.294808557     -22.0566404
                     0.294788059      -22.051154      0.156623699      177.537631      0.176105238     -12.1127374      0.833978157     -71.4557419
                     0.156653271      177.528968      0.294808558     -22.0566405      0.833978157     -71.4557418      0.176141964      -12.122444
72.58                0.411219351      16.7472425      0.607290169     -79.9517674      0.295786974     -22.1997731      0.157714243      177.436088
                     0.607290169     -79.9517673       0.41112239      16.7358685      0.157684985      177.444633      0.295807128     -22.2052239
                     0.295786974     -22.1997733      0.157684985      177.444633      0.176584207     -12.1928176      0.833133995     -71.6217486
                     0.157714243      177.436088      0.295807128      -22.205224      0.833133995     -71.6217486      0.176620486     -12.2025436
72.72                0.412444131      16.5049801      0.605892339      -80.167729      0.296787747     -22.3485292      0.158785715      177.343003
                     0.605892339      -80.167729      0.412348409      16.4937674      0.158756782      177.351428      0.296807552     -22.3539439
                     0.296787747     -22.3485293      0.158756782      177.351428      0.177063667     -12.2729977      0.832288286     -71.7878224
                     0.158785715      177.343002      0.296807552      -22.353944      0.832288287     -71.7878224      0.177099494     -12.2827426
72.86                0.413665934      16.2618902      0.604494504     -80.3840259      0.297790368     -22.4974234      0.159867838      177.249704
                     0.604494504     -80.3840259       0.41357148       16.250838      0.159839243      177.258009       0.29780982     -22.5028018
                     0.297790368     -22.4974235      0.159839243      177.258009      0.177543614     -12.3532777      0.831441044     -71.9539629
                     0.159867839      177.249704       0.29780982     -22.5028019      0.831441044     -71.9539628      0.177578986     -12.3630412
73                   0.414884642      16.0179771      0.603096694     -80.6006589      0.298794828     -22.6464571      0.160960769      177.156187
                     0.603096694     -80.6006589      0.414791485      16.0070843      0.160932522       177.16437      0.298813924     -22.6517989
                     0.298794828     -22.6464572      0.160932522       177.16437      0.178024048     -12.4336578      0.830592281     -72.1201693
                     0.160960769      177.156187      0.298813925     -22.6517989      0.830592281     -72.1201693      0.178058959     -12.4434395
73.14                0.416100135      15.7732448       0.60169894     -80.8176289       0.29980112     -22.7956317      0.162064665      177.062442
                      0.60169894     -80.8176289      0.416008305      15.7625105      0.162036778      177.070503      0.299819856     -22.8009365
                      0.29980112     -22.7956319      0.162036778      177.070503      0.178504965     -12.5141383       0.82974201     -72.2864412
                     0.162064665      177.062442      0.299819856     -22.8009366       0.82974201     -72.2864412      0.178539412     -12.5239377
73.28                0.417312295      15.5276979      0.600301273     -81.0349369      0.300809235     -22.9449487      0.163179687      176.968464
                     0.600301273     -81.0349369      0.417221822      15.5171211      0.163152173      176.976401      0.300827607     -22.9502161
                     0.300809235     -22.9449488      0.163152173      176.976401      0.178986365     -12.5947192      0.828890245      -72.452778
                     0.163179687      176.968464      0.300827607     -22.9502162      0.828890245     -72.4527779      0.179020343     -12.6045359
73.42                0.418521001       15.281341      0.598903724     -81.2525838      0.301819163     -23.0944092      0.164306001      176.874245
                     0.598903724     -81.2525838      0.418431914      15.2709206      0.164278872      176.882056      0.301837167      -23.099639
                     0.301819163     -23.0944093      0.164278872      176.882056      0.179468244     -12.6754008         0.828037     -72.6191791
                     0.164306001      176.874245      0.301837167     -23.0996391         0.828037     -72.6191791      0.179501749     -12.6852344
73.56                0.419726132      15.0341786      0.597506324     -81.4705706      0.302830895     -23.2440146      0.165443773      176.779777
                     0.597506323     -81.4705706      0.419638461      15.0239135      0.165417042      176.787462      0.302848527     -23.2492065
                     0.302830895     -23.2440148      0.165417043      176.787462      0.179950602     -12.7561831      0.827182287      -72.785644
                     0.165443773      176.779777      0.302848528     -23.2492066      0.827182287      -72.785644      0.179983629     -12.7660332
73.7                 0.420927566      14.7862157      0.596109103     -81.6888983      0.303844422     -23.3937663      0.166593175      176.685052
                     0.596109103     -81.6888982      0.420841342      14.7761047      0.166566856       176.69261      0.303861679       -23.39892
                     0.303844422     -23.3937665      0.166566856       176.69261      0.180433435     -12.8370665       0.82632612     -72.9521721
                     0.166593175      176.685052       0.30386168       -23.39892       0.82632612     -72.9521721       0.18046598     -12.8469326
73.84                 0.42212518      14.5374572      0.594712093     -81.9075677      0.304859736     -23.5436656      0.167754381      176.590064
                     0.594712093     -81.9075677      0.422040433      14.5274993      0.167728487      176.597492      0.304876613     -23.5487806
                     0.304859736     -23.5436657      0.167728487      176.597492      0.180916742     -12.9180509      0.825468513     -73.1187629
                     0.167754381      176.590064      0.304876614     -23.5487807      0.825468513     -73.1187629        0.1809488     -12.9279327
73.98                0.423318852      14.2879084      0.593315325       -82.12658      0.305876825     -23.6937137      0.168927569      176.494804
                     0.593315324       -82.12658      0.423235613      14.2781022      0.168902114      176.502102       0.30589332     -23.6987897
                     0.305876825     -23.6937138      0.168902115      176.502102      0.181400521     -12.9991366      0.824609478     -73.2854158
                      0.16892757      176.494804       0.30589332     -23.6987898      0.824609478     -73.2854158      0.181432087     -13.0090336
74.12                0.424508459      14.0375744      0.591918829     -82.3459361      0.306895681     -23.8439119      0.170112921      176.399264
                     0.591918829      -82.345936      0.424426757      14.0279187      0.170087919       176.40643      0.306911789     -23.8489486
                     0.306895681     -23.8439121       0.17008792       176.40643      0.181884769     -13.0803237       0.82374903     -73.4521303
                     0.170112922      176.399264      0.306911789     -23.8489487       0.82374903     -73.4521302       0.18191584     -13.0902355
74.26                0.425693874      13.7864609      0.590522638     -82.5656369      0.307916294     -23.9942615      0.171310622      176.303436
                     0.590522638     -82.5656369      0.425613741      13.7769544      0.171286088       176.31047       0.30793201     -23.9992586
                     0.307916294     -23.9942617      0.171286088       176.31047      0.182369485     -13.1616124      0.822887183     -73.6189057
                     0.171310622      176.303436       0.30793201     -23.9992587      0.822887183     -73.6189057      0.182400055     -13.1715385
74.4                 0.426874975      13.5345733      0.589126782     -82.7856836      0.308938653     -24.1447638       0.17252086      176.207312
                     0.589126781     -82.7856836      0.426796441      13.5252146      0.172496809      176.214211      0.308953974     -24.1497208
                     0.308938653     -24.1447639      0.172496809      176.214211      0.182854665     -13.2430028      0.822023949     -73.7857417
                      0.17252086      176.207312      0.308953975     -24.1497209      0.822023949     -73.7857416      0.182884731     -13.2529428
74.54                0.428051636      13.2819174      0.587731292      -83.006077      0.309962749     -24.2954199      0.173743828      176.110884
                     0.587731291      -83.006077      0.427974731      13.2727052      0.173720275      176.117647      0.309977671     -24.3003366
                     0.309962749       -24.29542      0.173720275      176.117647      0.183340309     -13.3244951      0.821159342     -73.9526375
                     0.173743829      176.110884      0.309977671     -24.3003367      0.821159342     -73.9526375      0.183369865     -13.3344485
74.68                 0.42922373      13.0284993      0.586336199     -83.2268184       0.31098857      -24.446231      0.174979724      176.014142
                     0.586336199     -83.2268183      0.429148486      13.0194321      0.174956684      176.020768       0.31100309     -24.4511071
                      0.31098857     -24.4462312      0.174956684      176.020768      0.183826413     -13.4060894      0.820293377     -74.1195927
                     0.174979724      176.014142       0.31100309     -24.4511071      0.820293377     -74.1195927      0.183855456     -13.4160558
74.82                0.430391132      12.7743249      0.584941536     -83.4479086      0.312016107     -24.5971985      0.176228746      175.917078
                     0.584941535     -83.4479085       0.43031758      12.7654012      0.176206237      175.923565       0.31203022     -24.6020335
                     0.312016107     -24.5971987      0.176206237      175.923565      0.184312975     -13.4877858      0.819426066     -74.2866067
                     0.176228747      175.917078       0.31203022     -24.6020336      0.819426066     -74.2866067        0.1843415     -13.4977647
74.96                0.431553716      12.5194004      0.583547332     -83.6693487      0.313045348     -24.7483235      0.177491102      175.819684
                     0.583547332     -83.6693487      0.431481886      12.5106187      0.177469138      175.826031      0.313059051     -24.7531171
                     0.313045348     -24.7483236      0.177469139      175.826031      0.184799994     -13.5695844      0.818557424      -74.453679
                     0.177491102      175.819684      0.313059051     -24.7531172      0.818557424      -74.453679      0.184827995     -13.5795755
75.1                 0.432711354      12.2637323       0.58215362     -83.8911398      0.314076283     -24.8996072      0.178766998       175.72195
                      0.58215362     -83.8911397      0.432641277      12.2550911      0.178745598      175.728155      0.314089571      -24.904359
                     0.314076283     -24.8996073      0.178745599      175.728155      0.185287466     -13.6514855      0.817687464      -74.620809
                     0.178766998       175.72195      0.314089572      -24.904359      0.817687464      -74.620809       0.18531494     -13.6614882
75.24                0.433863918      12.0073271      0.580760431     -84.1132829      0.315108901     -25.0510507       0.18005665      175.623867
                      0.58076043     -84.1132829      0.433795626      11.9988247      0.180035831      175.629928      0.315121771     -25.0557604
                     0.315108901     -25.0510508      0.180035831      175.629928       0.18577539     -13.7334891      0.816816201     -74.7879962
                      0.18005665      175.623867      0.315121771     -25.0557604      0.816816201     -74.7879962      0.185802332      -13.743503
75.38                0.435011283      11.7501915      0.579367796     -84.3357791       0.31614319     -25.2026552      0.181360274      175.525426
                     0.579367795     -84.3357791      0.434944806      11.7418263      0.181340053      175.531342      0.316155638     -25.2073224
                      0.31614319     -25.2026553      0.181340054      175.531342      0.186263763     -13.8155954      0.815943648       -74.95524
                     0.181360274      175.525426      0.316155638     -25.2073224      0.815943648       -74.95524      0.186290169       -13.82562
75.52                0.436153319      11.4923323      0.577975746     -84.5586294      0.317179139     -25.3544219      0.182678093      175.426617
                     0.577975746     -84.5586294      0.436088688      11.4841026       0.18265849      175.432386      0.317191161     -25.3590462
                     0.317179139      -25.354422       0.18265849      175.432386      0.186752583     -13.8978045      0.815069819     -75.1225399
                     0.182678093      175.426617      0.317191161     -25.3590462      0.815069819     -75.1225399      0.186778448     -13.9078394
75.66                  0.4372899      11.2337566      0.576584314     -84.7818351      0.318216737     -25.5063518      0.184010335       175.32743
                     0.576584313      -84.781835      0.437227146      11.2256606      0.183991367      175.333051      0.318228328     -25.5109329
                     0.318216737     -25.5063519      0.183991367      175.333051      0.187241847     -13.9801165      0.814194728     -75.2898954
                     0.184010335       175.32743      0.318228328     -25.5109329      0.814194728     -75.2898954      0.187267166     -13.9901612
75.8                 0.438420897      10.9744714      0.575193529      -85.005397      0.319255972     -25.6584461       0.18535723      175.227855
                     0.575193529      -85.005397      0.438360051      10.9665075      0.185338918      175.233326      0.319267128     -25.6629836
                     0.319255972     -25.6584463      0.185338918      175.233326      0.187731553     -14.0625315      0.813318389     -75.4573059
                     0.185357231      175.227855      0.319267129     -25.6629836      0.813318389     -75.4573059      0.187756322     -14.0725855
75.94                0.439546181      10.7144842      0.573803425     -85.2293164      0.320296831     -25.8107059      0.186719017      175.127884
                     0.573803424     -85.2293164      0.439487274      10.7066505       0.18670138      175.133203      0.320307549     -25.8151994
                     0.320296831     -25.8107061       0.18670138      175.133202      0.188221699     -14.1450497      0.812440816     -75.6247709
                     0.186719018      175.127883       0.32030755     -25.8151995      0.812440817     -75.6247708      0.188245913     -14.1551126
76.08                0.440665625      10.4538024      0.572414032     -85.4535944      0.321339303     -25.9631323      0.188095937      175.027504
                     0.572414031     -85.4535943      0.440608688      10.4460969      0.188078995      175.032669      0.321349579     -25.9675814
                     0.321339303     -25.9631325      0.188078996      175.032669      0.188712282     -14.2276712      0.811562024     -75.7922898
                     0.188095938      175.027504      0.321349579     -25.9675815      0.811562024     -75.7922897      0.188735936     -14.2377424
76.22                  0.4417791      10.1924336      0.571025382     -85.6782319      0.322383375     -26.1157264      0.189488238      174.926705
                     0.571025381     -85.6782319      0.441724164      10.1848545      0.189472012      174.931715      0.322393205     -26.1201307
                     0.322383375     -26.1157265      0.189472012      174.931715        0.1892033      -14.310396      0.810682025     -75.9598621
                     0.189488238      174.926705      0.322393206     -26.1201308      0.810682025     -75.9598621       0.18922639     -14.3204752
76.36                0.442886479      9.93038557      0.569637506     -85.9032303      0.323429035     -26.2684891      0.190896171      174.825478
                     0.569637505     -85.9032303      0.442833574        9.922931      0.190880683       174.83033      0.323438415     -26.2728483
                     0.323429035     -26.2684892      0.190880683       174.83033       0.18969475     -14.3932244      0.809800835     -76.1274873
                     0.190896172      174.825478      0.323438416     -26.2728484      0.809800835     -76.1274873       0.18971727      -14.403311
76.5                 0.443987633      9.66766628      0.568250436     -86.1285906       0.32447627     -26.4214216      0.192319996       174.72381
                     0.568250435     -86.1285906       0.44393679      9.66033419      0.192305267      174.728503      0.324485197     -26.4257353
                      0.32447627     -26.4214217      0.192305267      174.728503       0.19018663     -14.4761564      0.808918467     -76.2951648
                     0.192319996       174.72381      0.324485197     -26.4257354      0.808918467     -76.2951648      0.190208576     -14.4862499
76.64                0.445082433       9.4042838      0.566864203     -86.3543139      0.325525068     -26.5745249      0.193759975      174.621692
                     0.566864203     -86.3543139      0.445033683      9.39707216      0.193746028      174.626223      0.325533537     -26.5787927
                     0.325525068      -26.574525      0.193746028      174.626223      0.190678936     -14.5591921      0.808034936     -76.4628942
                     0.193759975      174.621692      0.325533537     -26.5787927      0.808034936     -76.4628941      0.190700305      -14.569292
76.78                0.446170753      9.14024638       0.56547884     -86.5804014      0.326575415        -26.7278      0.195216378       174.51911
                     0.565478839     -86.5804014      0.446124127      9.13315312      0.195203236      174.523479      0.326583422     -26.7320214
                     0.326575415     -26.7278001      0.195203236      174.523479      0.191171668     -14.6423316      0.807150255     -76.6306748
                     0.195216378       174.51911      0.326583422     -26.7320215      0.807150255     -76.6306748      0.191192453     -14.6524374
76.92                0.447252465      8.87556241      0.564094377     -86.8068542      0.327627298     -26.8812479      0.196689481      174.416055
                     0.564094376     -86.8068542      0.447207992      8.86858541      0.196677167      174.420258       0.32763484     -26.8854226
                     0.327627298      -26.881248      0.196677168      174.420258      0.191664821      -14.725575       0.80626444     -76.7985062
                     0.196689481      174.416055       0.32763484     -26.8854227       0.80626444     -76.7985062      0.191685019     -14.7356863
77.06                 0.44832744      8.61024042      0.562710846     -87.0336735      0.328680704     -27.0348695      0.198179565      174.312513
                     0.562710845     -87.0336735      0.448285151      8.60337754      0.198168105      174.316549      0.328687776     -27.0389972
                     0.328680704     -27.0348696      0.198168105      174.316549      0.192158394     -14.8089224      0.805377503     -76.9663878
                     0.198179565      174.312513      0.328687776     -27.0389972      0.805377503     -76.9663878      0.192177999     -14.8190387
77.2                 0.449395553      8.34428912      0.561328279     -87.2608605       0.32973562     -27.1886659      0.199686917      174.208474
                     0.561328278     -87.2608605      0.449355478      8.33753816      0.199676336       174.21234      0.329742218     -27.1927461
                      0.32973562     -27.1886661      0.199676336      174.212339      0.192652383      -14.892374      0.804489461     -77.1343191
                     0.199686918      174.208474      0.329742218     -27.1927462      0.804489461     -77.1343191      0.192671391     -14.9024947
77.34                0.450456677      8.07771735      0.559946707     -87.4884163       0.33079203     -27.3426381      0.201211833      174.103923
                     0.559946706     -87.4884163      0.450418845      8.07107607      0.201202155      174.107618      0.330798151     -27.3466703
                      0.33079203     -27.3426382      0.201202156      174.107618      0.193146787     -14.9759297      0.803600325     -77.3022996
                     0.201211834      174.103923      0.330798151     -27.3466704      0.803600326     -77.3022996      0.193165193     -14.9860545
77.48                0.451510684      7.81053409      0.558566162      -87.716342      0.331849923     -27.4967869      0.202754613       173.99885
                     0.558566161      -87.716342      0.451475127      7.80400022      0.202745866       174.00237      0.331855561     -27.5007708
                     0.331849923      -27.496787      0.202745866       174.00237      0.193641602     -15.0595898      0.802710113     -77.4703288
                     0.202754614       173.99885      0.331855562     -27.5007709      0.802710113     -77.4703287      0.193659401      -15.069718
77.62                 0.45255745       7.5427485      0.557186675      -87.944639      0.332909283     -27.6511133      0.204315565      173.893241
                     0.557186675      -87.944639      0.452524196      7.53631971      0.204307775      173.896585      0.332914436     -27.6550485
                     0.332909283     -27.6511134      0.204307776      173.896585      0.194136826     -15.1433543      0.801818836      -77.638406
                     0.204315565      173.893241      0.332914436     -27.6550486      0.801818836      -77.638406      0.194154014     -15.1534854
77.76                0.453596849      7.27436986      0.555808279     -88.1733083      0.333970095     -27.8056182      0.205895004      173.787083
                     0.555808278     -88.1733083      0.453565928       7.2680438      0.205888199      173.790248      0.333974759     -27.8095043
                     0.333970095     -27.8056184      0.205888199      173.790248      0.194632456     -15.2272232       0.80092651     -77.8065309
                     0.205895004      173.787083      0.333974759     -27.8095044       0.80092651     -77.8065309      0.194649027     -15.2373568
77.9                 0.454628757       7.0054076      0.554431004     -88.4023512      0.335032347     -27.9603026       0.20749325      173.680362
                     0.554431004     -88.4023512      0.454600197      6.99918186      0.207487459      173.683346      0.335036517     -27.9641391
                     0.335032347     -27.9603027       0.20748746      173.683346      0.195128489     -15.3111967       0.80003315     -77.9747029
                     0.207493251      173.680362      0.335036517     -27.9641391       0.80003315     -77.9747029       0.19514444     -15.3213322
78.04                0.455653048      6.73587129      0.553054883     -88.6317689      0.336096022     -28.1151672      0.209110635      173.573065
                     0.553054882     -88.6317689      0.455626879      6.72974345      0.209105887      173.575865      0.336099695     -28.1189537
                     0.336096022     -28.1151673      0.209105888      173.575865      0.195624923     -15.3952748      0.799138769     -78.1429215
                     0.209110635      173.573065      0.336099695     -28.1189538      0.799138769     -78.1429215      0.195640248     -15.4054117
78.18                0.456669601      6.46577065      0.551679946     -88.8615625      0.337161107      -28.270213      0.210747494      173.465178
                     0.551679946     -88.8615625      0.456645851      6.45973823       0.21074382      173.467792      0.337164278     -28.2739491
                     0.337161107     -28.2702131       0.21074382      173.467792      0.196121755     -15.4794577      0.798243382     -78.3111862
                     0.210747494      173.465178      0.337164278     -28.2739492      0.798243382     -78.3111862      0.196136449     -15.4895954
78.32                0.457678291      6.19511556      0.550306226     -89.0917333      0.338227585     -28.4254408      0.212404173      173.356686
                     0.550306226     -89.0917333       0.45765699      6.18917603      0.212401603      173.359112      0.338230251     -28.4291261
                     0.338227585     -28.4254409      0.212401604      173.359112      0.196618982     -15.5637453      0.797347003     -78.4794964
                     0.212404173      173.356686      0.338230251     -28.4291262      0.797347003     -78.4794964       0.19663304     -15.5738834
78.46                0.458678997      5.92391599      0.548933754     -89.3222826      0.339295442     -28.5808514      0.214081023      173.247575
                     0.548933754     -89.3222825      0.458660172      5.91806682       0.21407959      173.249809      0.339297599     -28.5844855
                     0.339295442     -28.5808515      0.214079591      173.249809      0.197116601     -15.6481378      0.796449647     -78.6478516
                     0.214081024      173.247575      0.339297599     -28.5844856      0.796449647     -78.6478516      0.197130019     -15.6582758
78.6                 0.459671598       5.6521821      0.547562562     -89.5532114      0.340364662     -28.7364458      0.215778407      173.137829
                     0.547562562     -89.5532114      0.459655277      5.64642068      0.215778144       173.13987      0.340366306     -28.7400282
                     0.340364662     -28.7364459      0.215778144       173.13987      0.197614609     -15.7326353      0.795551329     -78.8162514
                     0.215778408      173.137829      0.340366306     -28.7400282      0.795551329     -78.8162514      0.197627382     -15.7427725
78.74                0.460655974      5.37992416      0.546192681     -89.7845211       0.34143523     -28.8922246      0.217496695      173.027434
                     0.546192681     -89.7845211      0.460642185      5.37424786      0.217497634      173.029278      0.341436356     -28.8957549
                      0.34143523     -28.8922247      0.217497634      173.029278      0.198113004     -15.8172377      0.794652062     -78.9846952
                     0.217496695      173.027434      0.341436357      -28.895755      0.794652062     -78.9846952      0.198125127     -15.8273737
78.88                0.461632004      5.10715257      0.544824143     -90.0162129      0.342507129     -29.0481887      0.219236263      172.916374
                     0.544824143     -90.0162129      0.461620775      5.10155874       0.21923844      172.918018      0.342507734     -29.0516665
                     0.342507129     -29.0481888       0.21923844      172.918018      0.198611782     -15.9019452      0.793751862     -79.1531825
                     0.219236263      172.916374      0.342507735     -29.0516666      0.793751862     -79.1531825      0.198623251     -15.9120795
79.02                0.462599572      4.83387788       0.54345698     -90.2482881      0.343580344     -29.2043389        0.2209975      172.804632
                     0.543456979     -90.2482881      0.462590928      4.82836381       0.22100095      172.806074      0.343580424     -29.2077637
                     0.343580344      -29.204339      0.221000951      172.806074      0.199110941     -15.9867579      0.792850742     -79.3217128
                       0.2209975      172.804632      0.343580425     -29.2077638      0.792850742     -79.3217128       0.19912175     -15.9968898
79.16                0.463558558      4.56011076      0.542091222     -90.4807478      0.344654858     -29.3606759      0.222780803      172.692193
                     0.542091222     -90.4807478      0.463552528      4.55467371      0.222785563      172.693429       0.34465441     -29.3640473
                     0.344654858      -29.360676      0.222785563      172.693429      0.199610478     -16.0716757      0.791948718     -79.4902856
                     0.222780803      172.692193       0.34465441     -29.3640474      0.791948718     -79.4902856      0.199620622     -16.0818048
79.3                 0.464508847      4.28586201      0.540726902     -90.7135933      0.345730655     -29.5172005      0.224586577      172.579039
                     0.540726902     -90.7135933      0.464505456      4.28049921      0.224592684      172.580067      0.345729674     -29.5205181
                     0.345730655     -29.5172006      0.224592685      172.580067      0.200110389     -16.1566988      0.791045804     -79.6589004
                     0.224586577      172.579039      0.345729674     -29.5205181      0.791045804     -79.6589004      0.200119865     -16.1668245
79.44                0.465450324      4.01114257      0.539364051     -90.9468259      0.346807718     -29.6739134      0.226415239      172.465154
                     0.539364051     -90.9468259      0.465449599       4.0058512      0.226422732      172.465969        0.3468062     -29.6771767
                     0.346807718     -29.6739135      0.226422733      172.465969      0.200610673     -16.2418272      0.790142014     -79.8275567
                      0.22641524      172.465153        0.3468062     -29.6771768      0.790142014     -79.8275567      0.200619474      -16.251949
79.58                0.466382875      3.73596347      0.538002701     -91.1804469       0.34788603     -29.8308153      0.228267216      172.350519
                       0.5380027     -91.1804469      0.466384841      3.73074069      0.228276135       172.35112      0.347883972     -29.8340239
                      0.34788603     -29.8308154      0.228276135       172.35112      0.201111325      -16.327061      0.789237363     -79.9962541
                     0.228267216      172.350519      0.347883972     -29.8340239      0.789237364      -79.996254      0.201119447     -16.3371782
79.72                0.467306387       3.4603359      0.536642883     -91.4144575      0.348965575      -29.987907      0.230142943      172.235116
                     0.536642882     -91.4144574      0.467311069      3.45517884      0.230153329      172.235499      0.348962972     -29.9910603
                     0.348965575     -29.9879071      0.230153329      172.235499      0.201612343     -16.4124002      0.788331866     -80.1649919
                     0.230142943      172.235116      0.348962972     -29.9910604      0.788331866     -80.1649918      0.201619781     -16.4225124
79.86                0.468220748      3.18427116      0.535284628     -91.6488589      0.350046334      -30.145189      0.232042868      172.118928
                     0.535284628     -91.6488589      0.468228171      3.17917691      0.232054763       172.11909      0.350043184     -30.1482868
                     0.350046334     -30.1451891      0.232054763       172.11909      0.202113723     -16.4978448      0.787425537     -80.3337697
                     0.232042868      172.118928      0.350043184     -30.1482868      0.787425538     -80.3337697      0.202120473     -16.5079514
80                   0.469125848      2.90778064      0.533927969     -91.8836524      0.351128292     -30.3026621       0.23396745      172.001936
                     0.533927968     -91.8836524      0.469136038      2.90274626      0.233980897      172.001872      0.351124589     -30.3057038
                     0.351128292     -30.3026623      0.233980898      172.001872      0.202615463     -16.5833949      0.786518391      -80.502587
                     0.233967451      172.001936      0.351124589     -30.3057039      0.786518391      -80.502587      0.202621519     -16.5934953
80.14                0.470021578      2.63087589      0.532572936     -92.1188394      0.352211429      -30.460327      0.235917159      171.884119
                     0.532572935     -92.1188394      0.470034558      2.62589841      0.235932203      171.883827       0.35220717     -30.4633121
                     0.352211429     -30.4603271      0.235932203      171.883827       0.20311756     -16.6690506      0.785610443     -80.6714434
                      0.23591716      171.884119       0.35220717     -30.4633122      0.785610443     -80.6714434      0.203122917     -16.6791443
80.28                0.470907832      2.35356855      0.531219561      -92.354421      0.353295728     -30.6181842      0.237892477      171.765458
                      0.53121956      -92.354421      0.470923625      2.34864495      0.237909163      171.764934      0.353290909     -30.6211124
                     0.353295728     -30.6181844      0.237909163      171.764934       0.20362001     -16.7548118      0.784701706     -80.8403383
                     0.237892477      171.765458      0.353290909     -30.6211124      0.784701706     -80.8403382      0.203624664     -16.7648982
80.42                0.471784503      2.07587035      0.529867875     -92.5903986      0.354381171     -30.7762345      0.239893896      171.645933
                     0.529867875     -92.5903986      0.471803133      2.07099761      0.239912272      171.645174      0.354375789     -30.7791051
                     0.354381171     -30.7762346      0.239912273      171.645174      0.204122811     -16.8406787      0.783792196     -81.0092712
                     0.239893897      171.645933      0.354375789     -30.7791052      0.783792196     -81.0092712      0.204126756     -16.8507572
80.56                0.472651486      1.79779317      0.528517911     -92.8267734      0.355467739     -30.9344783      0.241921925      171.525523
                      0.52851791     -92.8267734      0.472672976      1.79296822      0.241942039      171.524524       0.35546179      -30.937291
                     0.355467739     -30.9344784       0.24194204      171.524524      0.204625958     -16.9266512      0.782881927     -81.1782416
                     0.241921925      171.525523       0.35546179     -30.9372911      0.782881927     -81.1782416       0.20462919     -16.9367213
80.7                  0.47350868      1.51934896      0.527169698     -93.0635468      0.356555415     -31.0929163      0.243977081      171.404207
                     0.527169698     -93.0635468      0.473533052      1.51456871      0.243998984      171.402964      0.356548894     -31.0956706
                     0.356555415     -31.0929164      0.243998984      171.402964       0.20512945     -17.0127294      0.781970915     -81.3472492
                     0.243977081      171.404207      0.356548895     -31.0956707      0.781970915     -81.3472491      0.205131963     -17.0227905
80.84                0.474355982      1.24054978      0.525823269     -93.3007199       0.35764418      -31.251549      0.246059898      171.281962
                     0.525823269     -93.3007199      0.474383258      1.23581111       0.24608364      171.280472      0.357637084     -31.2542445
                      0.35764418     -31.2515491      0.246083641      171.280472      0.205633282     -17.0989133      0.781059172     -81.5162933
                     0.246059898      171.281962      0.357637084     -31.2542446      0.781059172     -81.5162932      0.205635072     -17.1089648
80.98                0.475193294     0.961407804      0.524478655     -93.5382942      0.358734014      -31.410377      0.248170922      171.158766
                     0.524478655     -93.5382941      0.475223494     0.956707564      0.248196556      171.157025      0.358726339     -31.4130132
                     0.358734014     -31.4103772      0.248196557      171.157024      0.206137452      -17.185203      0.780146715     -81.6853735
                     0.248170922      171.158766      0.358726339     -31.4130133      0.780146715     -81.6853734      0.206138513     -17.1952443
81.12                0.476020517     0.681935283      0.523135887     -93.7762708      0.359824898     -31.5694009      0.250310712      171.034596
                     0.523135887     -93.7762708      0.476053664     0.677270298      0.250338294      171.032599      0.359816641     -31.5719773
                     0.359824898     -31.5694011      0.250338295      171.032599      0.206641956     -17.2715984      0.779233558     -81.8544893
                     0.250310713      171.034596      0.359816641     -31.5719774      0.779233558     -81.8544892      0.206642284     -17.2816289
81.26                0.476837556     0.402144569      0.521794997     -94.0146511      0.360916814     -31.7286212      0.252479845      170.909429
                     0.521794996     -94.0146511      0.476873669     0.397511639       0.25250943      170.907172       0.36090797     -31.7311373
                     0.360916814     -31.7286213      0.252509431      170.907172      0.207146791     -17.3580995      0.778319715     -82.0236402
                     0.252479845      170.909429      0.360907971     -31.7311373      0.778319715     -82.0236402      0.207146381     -17.3681188
81.4                 0.477644316     0.122048104      0.520456015     -94.2534364      0.362009741     -31.8880383       0.25467891       170.78324
                     0.520456014     -94.2534363      0.477683415     0.117444003      0.254710556      170.780718      0.362000308     -31.8904936
                     0.362009741     -31.8880384      0.254710557      170.780718      0.207651953     -17.4447065      0.777405202     -82.1928258
                      0.25467891       170.78324      0.362000308     -31.8904937      0.777405202     -82.1928258        0.2076508     -17.4547138
81.54                0.478440705    -0.158341587      0.519118973     -94.4926279      0.363103661     -32.0476527      0.256908512      170.656004
                     0.519118972     -94.4926279      0.478482809    -0.162920107      0.256942279      170.653213      0.363093633     -32.0500469
                     0.363103661     -32.0476529       0.25694228      170.653213       0.20815744     -17.5314193      0.776490032     -82.3620456
                     0.256908512      170.656004      0.363093634     -32.0500469      0.776490032     -82.3620456      0.208155539     -17.5414141
81.68                0.479226633    -0.439011891      0.517783901     -94.7322269      0.364198552      -32.207465      0.259169273      170.527696
                     0.517783901     -94.7322269      0.479271761    -0.443568103      0.259205223      170.524632      0.364187927     -32.2097974
                     0.364198552     -32.2074652      0.259205224      170.524631      0.208663248     -17.6182379       0.77557422     -82.5312991
                     0.259169274      170.527696      0.364187928     -32.2097975       0.77557422      -82.531299      0.208660594     -17.6282195
81.82                0.480002011    -0.719950119      0.516450832     -94.9722349      0.365294395     -32.3674756      0.261461832       170.39829
                     0.516450832     -94.9722348      0.480050181    -0.724487317      0.261500027      170.394946       0.36528317     -32.3697458
                     0.365294395     -32.3674757      0.261500028      170.394946      0.209169373     -17.7051623      0.774657782     -82.7005858
                     0.261461832      170.398289       0.36528317     -32.3697459      0.774657782     -82.7005857      0.209165961     -17.7151303
81.96                0.480766753      -1.0011435      0.515119797     -95.2126529       0.36639117     -32.5276849      0.263786843      170.267757
                     0.515119796     -95.2126529      0.480817983       -1.005665      0.263827349       170.26413       0.36637934     -32.5298924
                      0.36639117      -32.527685      0.263827349       170.26413      0.209675813     -17.7921926      0.773740731     -82.8699052
                     0.263786844      170.267757       0.36637934     -32.5298925      0.773740732     -82.8699052      0.209671637     -17.8021462
82.1                 0.481520774      -1.2825792      0.513790825     -95.4534824      0.367488856     -32.6880933       0.26614498      170.136072
                     0.513790825     -95.4534824       0.48157508     -1.28708834      0.266187863      170.132156      0.367476417     -32.6902377
                     0.367488856     -32.6880934      0.266187863      170.132156      0.210182563     -17.8793287      0.772823083      -83.039257
                      0.26614498      170.136072      0.367476418     -32.6902377      0.772823083      -83.039257       0.21017762     -17.8892674
82.24                0.482263991     -1.56424431      0.512463949     -95.6947246      0.368587433     -32.8487013      0.268536932      170.003205
                     0.512463949     -95.6947246      0.482321391     -1.56874444      0.268582262      169.998995      0.368574382     -32.8507819
                     0.368587433     -32.8487014      0.268582263      169.998995      0.210689621     -17.9665707      0.771904852     -83.2086406
                     0.268536933      170.003205      0.368574382      -32.850782      0.771904852     -83.2086405      0.210683904     -17.9764938
82.38                0.482996325     -1.84612584      0.511139199     -95.9363808      0.369686878     -33.0095091      0.270963411      169.869126
                     0.511139199     -95.9363808      0.483056834     -1.85062034      0.271011259      169.864618      0.369673212     -33.0115257
                     0.369686878     -33.0095093       0.27101126      169.864618      0.211196982     -18.0539185      0.770986053     -83.3780555
                     0.270963411      169.869126      0.369673212     -33.0115257      0.770986053     -83.3780555      0.211190488     -18.0638255
82.52                0.483717697     -2.12821076      0.509816607     -96.1784524      0.370787172     -33.1705173      0.273425145      169.733807
                     0.509816606     -96.1784524       0.48378133     -2.13270302      0.273475584      169.728994      0.370772886     -33.1724692
                     0.370787172     -33.1705174      0.273475585      169.728994      0.211704644     -18.1413721        0.7700667     -83.5475013
                     0.273425146      169.733807      0.370772886     -33.1724692        0.7700667     -83.5475013      0.211697367     -18.1512624
82.66                0.484428032     -2.41048597      0.508496203     -96.4209405      0.371888292     -33.3317261      0.275922884      169.597216
                     0.508496202     -96.4209405      0.484494804     -2.41497939      0.275975991      169.592093      0.371873384     -33.3336128
                     0.371888292     -33.3317262      0.275975991      169.592093      0.212212603     -18.2289316      0.769146807     -83.7169776
                     0.275922885      169.597216      0.371873384     -33.3336129      0.769146808     -83.7169775      0.212204537     -18.2388045
82.8                 0.485127255     -2.69293831      0.507178018     -96.6638465      0.372990218     -33.4931358      0.278457398      169.459321
                     0.507178017     -96.6638465      0.485197179     -2.69743632       0.27851325      169.453882      0.372974683     -33.4949569
                     0.372990218     -33.4931359       0.27851325      169.453882      0.212720855     -18.3165969      0.768226391     -83.8864838
                     0.278457398      169.459321      0.372974684      -33.494957      0.768226391     -83.8864838      0.212711996     -18.3264518
82.94                0.485815295     -2.97555457      0.505862082     -96.9071717      0.374092927     -33.6547468      0.281029478       169.32009
                     0.505862082     -96.9071717      0.485888385     -2.98006062      0.281088156      169.314328      0.374076763     -33.6565018
                     0.374092927      -33.654747      0.281088156      169.314328      0.213229396      -18.404368      0.767305464     -84.0560195
                     0.281029478       169.32009      0.374076763     -33.6565019      0.767305465     -84.0560195       0.21321974     -18.4142042
83.08                0.486492082     -3.25832151      0.504548428     -97.1509174      0.375196398     -33.8165594      0.283639938      169.179489
                     0.504548427     -97.1509174      0.486568351     -3.26283903      0.283701525      169.173399        0.3751796     -33.8182478
                     0.375196398     -33.8165596      0.283701526      169.173399      0.213738224     -18.4922449      0.766384043     -84.2255843
                     0.283639938      169.179489        0.3751796     -33.8182478      0.766384043     -84.2255843      0.213727765     -18.5020619
83.22                 0.48715755     -3.54122581      0.503237085     -97.3950848      0.376300607     -33.9785739      0.286289615      169.037483
                     0.503237084     -97.3950848       0.48723701     -3.54575829      0.286354196      169.031059      0.376283173     -33.9801951
                     0.376300607      -33.978574      0.286354197      169.031058      0.214247335     -18.5802275      0.765462141     -84.3951777
                     0.286289615      169.037483      0.376283173     -33.9801951      0.765462141     -84.3951776      0.214236067     -18.5900247
83.36                0.487811634     -3.82425415      0.501928084     -97.6396752      0.377405534     -34.1407905      0.288979369      168.894037
                     0.501928083     -97.6396752      0.487894297     -3.82880504      0.289047033      168.887272      0.377387459      -34.142344
                     0.377405534     -34.1407906      0.289047034      168.887271      0.214756724     -18.6683159      0.764539773     -84.5647992
                     0.288979369      168.894037      0.377387459      -34.142344      0.764539773     -84.5647992      0.214744644     -18.6780926
83.5                 0.488454272     -4.10739313      0.500621456     -97.8846899      0.378511154     -34.3032094      0.291710085      168.749115
                     0.500621455     -97.8846899      0.488540148     -4.11196593      0.291780923      168.742001      0.378492436     -34.3046947
                     0.378511154     -34.3032095      0.291780924      168.742001      0.215266389     -18.7565101      0.763616953     -84.7344484
                     0.291710085      168.749115      0.378492436     -34.3046948      0.763616953     -84.7344484       0.21525349     -18.7662656
83.64                0.489085404     -4.39062934      0.499317231     -98.1301302      0.379617446     -34.4658309      0.294482672      168.602678
                      0.49931723     -98.1301302      0.489174503     -4.39522756      0.294556779      168.595209       0.37959808     -34.4672475
                     0.379617446      -34.465831       0.29455678      168.595209      0.215776326     -18.8448099      0.762693697     -84.9041248
                     0.294482673      168.602678      0.379598081     -34.4672476      0.762693697     -84.9041248      0.215762604     -18.8545437
83.78                0.489704973     -4.67394936       0.49801544     -98.3759973      0.380724386     -34.6286552      0.297298069      168.454688
                     0.498015439     -98.3759973      0.489797304     -4.67857648      0.297375541      168.446857       0.38070437     -34.6300026
                     0.380724386     -34.6286553      0.297375542      168.446857       0.21628653     -18.9332154      0.761770018     -85.0738281
                     0.297298069      168.454688       0.38070437     -34.6300027      0.761770019      -85.073828       0.21627198     -18.9429268
83.92                0.490312923      -4.9573397      0.496716113     -98.6222925      0.381831951     -34.7916824      0.300157237      168.305104
                     0.496716113     -98.6222925      0.490408496     -4.96199925      0.300238175      168.296904      0.381811281     -34.7929602
                      0.38183195     -34.7916825      0.300238176      168.296904      0.216796998     -19.0217266      0.760845932     -85.2435576
                     0.300157237      168.305104      0.381811281     -34.7929602      0.760845932     -85.2435576      0.216781615     -19.0314149
84.06                0.490909202     -5.24078688      0.495419282     -98.8690171      0.382940117     -34.9549128      0.303061169      168.153886
                     0.495419281     -98.8690171      0.491008025     -5.24548237      0.303145677      168.145309       0.38291879     -34.9561203
                     0.382940117     -34.9549129      0.303145677      168.145309      0.217307727     -19.1103433      0.759921453     -85.4133131
                     0.303061169      168.153886      0.382918791     -34.9561204      0.759921453     -85.4133131      0.217291506     -19.1200079
84.2                 0.491493761     -5.52427739      0.494124975     -99.1161723      0.384048861     -35.1183464      0.306010885      168.000991
                     0.494124975     -99.1161722       0.49159584     -5.52901235      0.306099069       167.99203      0.384026874     -35.1194833
                     0.384048861     -35.1183466       0.30609907       167.99203      0.217818713     -19.1990656      0.758996595     -85.5830941
                     0.306010886      168.000991      0.384026875     -35.1194833      0.758996595      -85.583094      0.217801648     -19.2087059
84.34                0.492066551     -5.80779771      0.492833225     -99.3637593      0.385158159     -35.2819835      0.309007437      167.846376
                     0.492833224     -99.3637593      0.492171894     -5.81257566      0.309099407      167.837022      0.385135509     -35.2830491
                     0.385158159     -35.2819837      0.309099408      167.837022      0.218329951     -19.2878935      0.758071373        -85.7529
                     0.309007437      167.846376      0.385135509     -35.2830492      0.758071374        -85.7529      0.218312038     -19.2975087
84.48                0.492627528      -6.0913343       0.49154406     -99.6117794      0.386267987     -35.4458242      0.312051906      167.689994
                     0.491544059     -99.6117794       0.49273614     -6.09615879      0.312147776       167.68024       0.38624467      -35.446818
                     0.386267987     -35.4458243      0.312147777       167.68024      0.218841439     -19.3768268      0.757145802     -85.9227305
                     0.312051906      167.689994       0.38624467      -35.446818      0.757145802     -85.9227305      0.218822672     -19.3864164
84.62                0.493176649     -6.37487364      0.490257511     -99.8602338      0.387378321     -35.6098684      0.315145406      167.531801
                      0.49025751     -99.8602338      0.493288536     -6.37974819      0.315245294      167.521637      0.387354334     -35.6107899
                     0.387378321     -35.6098685      0.315245295      167.521637      0.219353171     -19.4658655      0.756219896     -86.0925852
                     0.315145407      167.531801      0.387354334       -35.61079      0.756219896     -86.0925851      0.219333547     -19.4754289
84.76                0.493713874     -6.65840218      0.488973609     -100.109124      0.388489135     -35.7741163      0.318289086      167.371747
                     0.488973608     -100.109124      0.493829041     -6.66333033      0.318393113      167.361165      0.388464475      -35.774965
                     0.388489135     -35.7741165      0.318393114      167.361165      0.219865146     -19.5550097      0.755293669     -86.2624635
                     0.318289086      167.371747      0.388464475     -35.7749651      0.755293669     -86.2624635      0.219844657      -19.564546
84.9                 0.494239167     -6.94190638      0.487692382     -100.358451      0.389600406     -35.9385681      0.321484127      167.209784
                     0.487692382     -100.358451      0.494357618     -6.94689167      0.321592419      167.198774       0.38957507     -35.9393434
                     0.389600406     -35.9385682       0.32159242      167.198774      0.220377357     -19.6442592      0.754367136     -86.4323651
                     0.321484127      167.209784       0.38957507     -35.9393434      0.754367136     -86.4323651      0.220356001     -19.6537679
85.04                0.494752492     -7.22537271      0.486413863     -100.608215      0.390712109     -36.1032235      0.324731747       167.04586
                     0.486413862     -100.608215       0.49487423     -7.23041867      0.324844433      167.034414      0.390686093      -36.103925
                     0.390712109     -36.1032237      0.324844434      167.034414      0.220889802     -19.7336139      0.753440311     -86.6022895
                     0.324731747       167.04586      0.390686093     -36.1039251      0.753440311     -86.6022895      0.220867572     -19.7430943
85.18                0.495253818     -7.50878765       0.48513808     -100.858419      0.391824217     -36.2680829      0.328033202      166.879923
                     0.485138079     -100.858419      0.495378845     -7.51389781      0.328150417       166.86803       0.39179752     -36.2687099
                     0.391824217      -36.268083      0.328150418       166.86803      0.221402477     -19.8230739      0.752513209     -86.7722364
                     0.328033202      166.879923       0.39179752       -36.26871      0.752513209     -86.7722364      0.221379368     -19.8325253
85.32                0.495743115     -7.79213768      0.483865063     -101.109064      0.392936707      -36.433146      0.331389785      166.711918
                     0.483865062     -101.109064      0.495871433     -7.79731557      0.331511667      166.699569      0.392909324     -36.4336981
                     0.392936707     -36.4331461      0.331511668      166.699569      0.221915377      -19.912639      0.751585844     -86.9422052
                     0.331389785      166.711918      0.392909324     -36.4336981      0.751585844     -86.9422052      0.221891385     -19.9220608
85.46                0.496220356     -8.07540932      0.482594842      -101.36015      0.394049552     -36.5984129      0.334802831      166.541789
                     0.482594841      -101.36015      0.496351966     -8.08065847      0.334929523      166.528974      0.394021481     -36.5988895
                     0.394049552      -36.598413      0.334929524      166.528974      0.222428499     -20.0023092      0.750658231     -87.1121956
                     0.334802831      166.541789      0.394021481     -36.5988896      0.750658231     -87.1121955      0.222403619     -20.0117007
85.6                 0.496685518     -8.35858908      0.481327447     -101.611678      0.395162728     -36.7638835      0.338273713      166.369478
                     0.481327447     -101.611678       0.49682042     -8.36391301      0.338405363      166.356186      0.395133965     -36.7642842
                     0.395162727     -36.7638837      0.338405364      166.356186      0.222941839     -20.0920844      0.749730384      -87.282207
                     0.338273714      166.369478      0.395133965     -36.7642842      0.749730384      -87.282207      0.222916065      -20.101445
85.74                0.497138577     -8.64166353      0.480062908     -101.863651      0.396276207     -36.9295579      0.341803851      166.194926
                     0.480062908     -101.863651      0.497276772     -8.64706576      0.341940612      166.181146      0.396246749      -36.929882
                     0.396276206      -36.929558      0.341940613      166.181146      0.223455393     -20.1819646      0.748802317     -87.4522392
                     0.341803851      166.194926       0.39624675     -36.9298821      0.748802318     -87.4522392       0.22342872     -20.1912935
85.88                0.497579517     -8.92461925      0.478801255     -102.116069      0.397389963     -37.0954359      0.345394706       166.01807
                     0.478801254     -102.116069      0.497721002     -8.93010327      0.345536736       166.00379      0.397359809     -37.0956829
                     0.397389963      -37.095436      0.345536737       166.00379      0.223969156     -20.2719497      0.747874045     -87.6222916
                     0.345394706       166.01807      0.397359809      -37.095683      0.747874045     -87.6222916      0.223941579     -20.2812463
86.02                 0.49800832     -9.20744284      0.477542516     -102.368933      0.398503971     -37.2615174      0.349047787      165.838846
                     0.477542515     -102.368933      0.498153095     -9.21301217      0.349195249      165.824056      0.398473117     -37.2616868
                     0.398503971     -37.2615175       0.34919525      165.824056      0.224483124     -20.3620396      0.746945582     -87.7923639
                     0.349047787      165.838846      0.398473117     -37.2616868      0.746945582     -87.7923639      0.224454639     -20.3713031
86.16                0.498424973     -9.49012097      0.476286722     -102.622244      0.399618204     -37.4278022       0.35276465      165.657189
                     0.476286721     -102.622244      0.498573034     -9.49577909      0.352917713      165.641876      0.399586648     -37.4278935
                     0.399618204     -37.4278024      0.352917715      165.641876      0.224997295     -20.4522342      0.746016942     -87.9624556
                      0.35276465      165.657189      0.399586648     -37.4278936      0.746016943     -87.9624556      0.224967896      -20.461464
86.3                 0.498829464     -9.77264032      0.475033902     -102.876004      0.400732636     -37.5942904      0.356546901      165.473029
                     0.475033901     -102.876004       0.49898081     -9.77839071      0.356705741      165.457181      0.400700373      -37.594303
                     0.400732636     -37.5942905      0.356705742      165.457181      0.225511662     -20.5425335       0.74508814     -88.1325663
                     0.356546901      165.473029      0.400700373      -37.594303       0.74508814     -88.1325663      0.225481344     -20.5517289
86.44                0.499221786     -10.0549876      0.473784085     -103.130213      0.401847238     -37.7609816      0.360396197      165.286297
                     0.473784084     -103.130213      0.499376412     -10.0608338      0.360560994        165.2699      0.401814268      -37.760915
                     0.401847238     -37.7609818      0.360560995        165.2699      0.226026223     -20.6329373       0.74415919     -88.3026956
                     0.360396197      165.286297      0.401814268     -37.7609151       0.74415919     -88.3026956      0.225994981     -20.6420976
86.58                0.499601933     -10.3371497      0.472537301     -103.384874      0.402961985     -37.9278758      0.364314249      165.096919
                       0.4725373     -103.384874      0.499759834      -10.343095       0.36448519      165.079961      0.402928303     -37.9277294
                     0.402961985      -37.927876      0.364485191      165.079961      0.226540972     -20.7234456      0.743230106     -88.4728432
                     0.364314249      165.096919      0.402928304     -37.9277295      0.743230106     -88.4728431      0.226508802     -20.7325702
86.72                0.499969901     -10.6191133      0.471293579     -103.639986      0.404076849     -38.0949727      0.368302823      164.904819
                     0.471293578     -103.639986      0.500131072     -10.6251613      0.368480101      164.887285      0.404042454      -38.094746
                     0.404076849     -38.0949729      0.368480103      164.887285      0.227055907     -20.8140583      0.742300901     -88.6430084
                     0.368302823      164.904819      0.404042454     -38.0947461      0.742300902     -88.6430084      0.227022803     -20.8231464
86.86                0.500325691     -10.9008654      0.470052947      -103.89555      0.405191802     -38.2622722      0.372363741       164.70992
                     0.470052947      -103.89555      0.500490126     -10.9070194      0.372547558      164.691796       0.40515669     -38.2619646
                     0.405191802     -38.2622723       0.37254756      164.691796      0.227571022     -20.9047753      0.741371592     -88.8131911
                     0.372363742       164.70992      0.405156691     -38.2619647      0.741371592      -88.813191      0.227536979     -20.9138262
87                   0.500669304     -11.1823929      0.468815436     -104.151569      0.406306816     -38.4297739      0.376498888      164.512139
                     0.468815435     -104.151569      0.500836997     -11.1886564      0.376689451      164.493411      0.406270986     -38.4293849
                     0.406306816      -38.429774      0.376689452      164.493411      0.228086314     -20.9955964      0.740442191     -88.9833907
                     0.376498888      164.512139      0.406270987      -38.429385      0.740442191     -88.9833906      0.228051327     -21.0046094
87.14                0.501000745     -11.4636829      0.467581074     -104.408043      0.407421865     -38.5974776      0.380710208      164.311393
                     0.467581073     -104.408043      0.501171689     -11.4700592      0.380907731      164.292045      0.407385314     -38.5970067
                     0.407421865     -38.5974777      0.380907732      164.292045      0.228601777     -21.0865217      0.739512712     -89.1536068
                     0.380710208      164.311392      0.407385314     -38.5970067      0.739512713     -89.1536068      0.228565842     -21.0954961
87.28                0.501320022     -11.7447223       0.46634989     -104.664973      0.408536919     -38.7653831       0.38499971      164.107594
                     0.466349889     -104.664973      0.501494208     -11.7512149      0.385204415      164.087611      0.408499644     -38.7648297
                     0.408536919     -38.7653832      0.385204416      164.087611      0.229117409      -21.177551      0.738583171     -89.3238391
                     0.384999711      164.107594      0.408499644     -38.7648297      0.738583171     -89.3238391       0.22908052     -21.1864861
87.42                0.501627144     -12.0254984      0.465121913      -104.92236      0.409651951       -38.93349       0.38936947      163.900653
                     0.465121912      -104.92236      0.501804564     -12.0321106      0.389581586      163.880018       0.40961395     -38.9328536
                     0.409651951     -38.9334902      0.389581588      163.880018      0.229633204     -21.2686841       0.73765358     -89.4940871
                      0.38936947      163.900653       0.40961395     -38.9328536       0.73765358     -89.4940871      0.229595356     -21.2775792
87.56                0.501922124     -12.3059983      0.463897172     -105.180205      0.410766932     -39.1017981      0.393821633      163.690476
                     0.463897171     -105.180205      0.502102768     -12.3127335      0.394041399      163.669172      0.410728202      -39.101078
                     0.410766931     -39.1017982        0.3940414      163.669172      0.230149159     -21.3599211      0.736723955     -89.6643505
                     0.393821633      163.690476      0.410728202     -39.1010781      0.736723955     -89.6643504      0.230110347     -21.3687754
87.7                 0.502204976     -12.5862095      0.462675695     -105.438508      0.411881833      -39.270307      0.398358415      163.476967
                     0.462675694     -105.438508      0.502388835     -12.5930709      0.398586076      163.454976      0.411842373     -39.2695028
                     0.411881833     -39.2703071      0.398586078      163.454976      0.230665268     -21.4512617      0.735794308     -89.8346288
                     0.398358415      163.476967      0.411842373     -39.2695028      0.735794308     -89.8346287      0.230625487     -21.4600746
87.84                0.502475719     -12.8661191       0.46145751     -105.697272      0.412996625     -39.4390163      0.402982107      163.260024
                      0.46145751     -105.697272      0.502662782     -12.8731101      0.403217919      163.237329      0.412956432     -39.4381274
                     0.412996625     -39.4390164      0.403217921      163.237328      0.231181528     -21.5427059      0.734864654     -90.0049216
                     0.402982107      163.260023      0.412956432     -39.4381274      0.734864654     -90.0049216      0.231140773     -21.5514766
87.98                0.502734373     -13.1457148      0.460242648     -105.956497      0.414111281     -39.6079257      0.407695078      163.039543
                     0.460242647     -105.956497      0.502924628     -13.1528386      0.407939305      163.016124      0.414070352     -39.6069515
                     0.414111281     -39.6079258      0.407939307      163.016124      0.231697934     -21.6342535      0.733935007     -90.1752286
                     0.407695078      163.039543      0.414070353     -39.6069516      0.733935007     -90.1752285      0.231656201     -21.6429813
88.12                0.502980959     -13.4249839      0.459031135     -106.216184      0.415225769     -39.7770347      0.412499776      162.815416
                     0.459031134     -106.216184      0.503174395     -13.4322439      0.412752692      162.791254      0.415184104     -39.7759748
                     0.415225769     -39.7770348      0.412752693      162.791254      0.232214482     -21.7259044      0.733005381     -90.3455493
                     0.412499776      162.815416      0.415184104     -39.7759748      0.733005381     -90.3455493      0.232171765     -21.7345886
88.26                0.503215503     -13.7039143         0.457823     -106.476333      0.416340062      -39.946343      0.417398734      162.587531
                     0.457822999     -106.476333      0.503412107     -13.7113136       0.41766062      162.562606      0.416297657     -39.9451967
                     0.416340062     -39.9463431      0.417660622      162.562606      0.232731167     -21.8176585       0.73207579     -90.5158834
                     0.417398734      162.587531      0.416297657     -39.9451968       0.73207579     -90.5158833      0.232687461     -21.8262984
88.4                 0.503438033     -13.9824935      0.456618271     -106.736946      0.417454129     -40.1158501      0.422394569      162.355772
                     0.456618271     -106.736946      0.503637791     -13.9900354       0.42266572      162.330062      0.417410983     -40.1146169
                     0.417454129     -40.1158502      0.422665722      162.330062      0.233247985     -21.9095157      0.731146247     -90.6862304
                     0.422394569      162.355771      0.417410983     -40.1146169      0.731146248     -90.6862304      0.233203286     -21.9181105
88.54                0.503648578     -14.2607094      0.455416978     -106.998024      0.418567941     -40.2855555      0.427489991      162.120016
                     0.455416977     -106.998024      0.503851477     -14.2683971      0.427770709      162.093501      0.418524051     -40.2842349
                     0.418567941     -40.2855556      0.427770711      162.093501      0.233764931     -22.0014758      0.730216767       -90.85659
                     0.427489991      162.120016      0.418524051     -40.2842349      0.730216768       -90.85659      0.233719233     -22.0100249
88.68                 0.50384717       -14.53855      0.454219146     -107.259567      0.419681468     -40.4554588      0.432687799      161.880139
                     0.454219146     -107.259567      0.504053195     -14.5463866        0.4329784      161.852795      0.419636832     -40.4540502
                     0.419681468     -40.4554589      0.432978402      161.852795      0.234282002     -22.0935387      0.729287363     -91.0269618
                     0.432687799      161.880139      0.419636832     -40.4540502      0.729287364     -91.0269618        0.2342353     -22.1020413
88.82                0.504033844     -14.8160032      0.453024806     -107.521576       0.42079468     -40.6255595      0.437990892       161.63601
                     0.453024805     -107.521576      0.504242981     -14.8239918      0.438291701      161.607813      0.420749297     -40.6240623
                      0.42079468     -40.6255596      0.438291702      161.607813      0.234799191     -22.1857043       0.72835805     -91.1973454
                     0.437990893       161.63601      0.420749297     -40.6240623       0.72835805     -91.1973454      0.234751481     -22.1941596
88.96                0.504208637     -15.0930572      0.451833984     -107.784052      0.421907547      -40.795857      0.443402269      161.387493
                     0.451833983     -107.784052       0.50442087     -15.1012009      0.443713621      161.358419      0.421861414     -40.7942707
                     0.421907547     -40.7958571      0.443713623      161.358419      0.235316496     -22.2779725       0.72742884     -91.3677404
                     0.443402269      161.387492      0.421861414     -40.7942707       0.72742884     -91.3677404      0.235267772     -22.2863797
89.1                 0.504371588     -15.3697002      0.450646708     -108.046996      0.423020037     -40.9663508      0.448925029      161.134446
                     0.450646707     -108.046996        0.5045869     -15.3780021      0.449247275       161.10447      0.422973153     -40.9646748
                     0.423020037     -40.9663509      0.449247277       161.10447      0.235833911      -22.370343      0.726499747     -91.5381464
                     0.448925029      161.134446      0.422973153     -40.9646749      0.726499747     -91.5381464      0.235784169     -22.3787015
89.24                0.504522738     -15.6459205      0.449463006     -108.310408      0.424132121     -41.1370403      0.454562384      160.876723
                     0.449463005     -108.310408      0.504741113     -15.6543837      0.454895884      160.845819      0.424084484     -41.1352741
                     0.424132121     -41.1370405      0.454895886      160.845819      0.236351431     -22.4628158      0.725570786     -91.7085631
                     0.454562384      160.876723      0.424084485     -41.1352742      0.725570786     -91.7085631      0.236300666     -22.4711248
89.38                0.504662132     -15.9217066      0.448282905      -108.57429      0.425243769      -41.307925      0.460317653      160.614172
                     0.448282905      -108.57429      0.504883553      -15.930334      0.460662782      160.582312      0.425195377      -41.306068
                     0.425243769     -41.3079252      0.460662784      160.582312      0.236869052     -22.5553907      0.724641969       -91.87899
                     0.460317653      160.614172      0.425195377     -41.3060681       0.72464197       -91.87899      0.236817259     -22.5636494
89.52                0.504789815      -16.197047      0.447106434     -108.838642      0.426354948     -41.4790043      0.466194274      160.346633
                     0.447106433     -108.838642      0.505014263     -16.2058417      0.466551418      160.313788        0.4263058     -41.4770559
                     0.426354948     -41.4790044      0.466551421      160.313788       0.23738677     -22.6480675      0.723713311     -92.0494269
                     0.466194275      160.346633        0.4263058      -41.477056      0.723713312     -92.0494268      0.237333944     -22.6562753
89.66                0.504905836     -16.4719305      0.445933619     -109.103465      0.427465628     -41.6502775      0.472195804       160.07394
                     0.445933618     -109.103465      0.505133292     -16.4808954      0.472565365      160.040081      0.427415722     -41.6482372
                     0.427465628     -41.6502776      0.472565367      160.040081       0.23790458     -22.7408461      0.722784825     -92.2198732
                     0.472195804       160.07394      0.427415722     -41.6482373      0.722784826     -92.2198732      0.237850716     -22.7490022
89.8                 0.505010244     -16.7463458      0.444764487     -109.368759      0.428575778     -41.8217439      0.478325923      159.795922
                     0.444764487     -109.368758       0.50524069     -16.7554839      0.478708315      159.761019      0.428525113     -41.8196112
                     0.428575778      -41.821744      0.478708317      159.761018      0.238422477     -22.8337264      0.721856525     -92.3903287
                     0.478325923      159.795922      0.428525113     -41.8196113      0.721856525     -92.3903287      0.238367569     -22.8418299
89.94                0.505103091     -17.0202819      0.443599067     -109.634524      0.429685366      -41.993403       0.48458844        159.5124
                     0.443599066     -109.634524      0.505336508      -17.029596      0.484984092      159.476419       0.42963394     -41.9911773
                     0.429685366     -41.9934031      0.484984094      159.476419      0.238940456     -22.9267081      0.720928424      -92.560793
                     0.484588441      159.512399       0.42963394     -41.9911773      0.720928424     -92.5607929      0.238884501     -22.9347584
90.08                0.505184434     -17.2937278      0.442437384     -109.900763      0.430794361     -42.1652539      0.490987298      159.223185
                     0.442437383     -109.900763      0.505420801     -17.3032207      0.491396653      159.186094      0.430742173     -42.1629347
                     0.430794361     -42.1652541      0.491396656      159.186094      0.239458513     -23.0197912      0.720000535     -92.7312656
                     0.490987298      159.223185      0.430742173     -42.1629347      0.720000535     -92.7312656      0.239401505     -23.0277875
90.22                0.505254327     -17.5666726      0.441279466     -110.167475      0.431902732     -42.3372961      0.497526574      158.928085
                     0.441279465     -110.167475      0.505493624     -17.5763473      0.497950093      158.889849       0.43184978     -42.3348828
                     0.431902732     -42.3372962      0.497950096      158.889848      0.239976643     -23.1129754      0.719072872     -92.9017463
                     0.497526575      158.928084       0.43184978     -42.3348828      0.719072872     -92.9017462      0.239918578     -23.1209169
90.36                0.505312829     -17.8391058       0.44012534      -110.43466      0.433010445     -42.5095288      0.504210491      158.626895
                     0.440125339      -110.43466      0.505555035     -17.8489649      0.504648649      158.587477      0.432956729     -42.5070207
                     0.433010445     -42.5095289      0.504648651      158.587477      0.240494841     -23.2062606      0.718145448     -93.0722346
                     0.504210492      158.626894      0.432956729     -42.5070208      0.718145448     -93.0722345      0.240435713     -23.2141466
90.5                 0.505360001     -18.1110166      0.438975032      -110.70232       0.43411747     -42.6819512      0.511043416      158.319404
                     0.438975031      -110.70232      0.505605093      -18.121063      0.511496702      158.278768      0.434062987     -42.6793479
                      0.43411747     -42.6819513      0.511496705      158.278768      0.241013102     -23.2996466      0.717218277     -93.2427302
                     0.511043416      158.319404      0.434062988      -42.679348      0.717218277     -93.2427301      0.240952908     -23.3074763
90.64                0.505395905     -18.3823947      0.437828569     -110.970454      0.435223775     -42.8545625      0.518029867      158.005391
                     0.437828568     -110.970454      0.505643862     -18.3926311      0.518498789      157.963498      0.435168524     -42.8518635
                     0.435223774     -42.8545626      0.518498792      157.963497      0.241531422     -23.3931333      0.716291372     -93.4132327
                     0.518029867      158.005391      0.435168525     -42.8518635      0.716291372     -93.4132327      0.241470156     -23.4009059
90.78                0.505420605     -18.6532298      0.436685978     -111.239064      0.436329326      -43.027362      0.525174517      157.684628
                     0.436685977     -111.239064      0.505671405     -18.6636589        0.5256596      157.641435      0.436273307     -43.0245666
                     0.436329326     -43.0273621      0.525659602      157.641435      0.242049796     -23.4867204      0.715364746     -93.5837418
                     0.525174517      157.684627      0.436273308     -43.0245667      0.715364746     -93.5837417      0.241987453     -23.4944352
90.92                0.505434167     -18.9235117      0.435547285     -111.508149      0.437434092     -43.2003488      0.532482201      157.356872
                     0.435547284     -111.508149      0.505687786     -18.9341361      0.532983984      157.312338      0.437377304     -43.1974566
                     0.437434092     -43.2003489      0.532983987      157.312337      0.242568219     -23.5804077      0.714438413      -93.754257
                     0.532482201      157.356872      0.437377304     -43.1974566      0.714438413      -93.754257      0.242504794      -23.588064
91.06                0.505436659     -19.1932304      0.434412516     -111.777711       0.43853804     -43.3735222      0.539957916      157.021874
                     0.434412515     -111.777711      0.505693075     -19.2040527      0.540476959      156.975954      0.438480482     -43.3705325
                      0.43853804     -43.3735223      0.540476961      156.975953      0.243086686     -23.6741952      0.713512385     -93.9247781
                     0.539957916      157.021874      0.438480482     -43.3705325      0.713512385     -93.9247781      0.243022174      -23.681792
91.2                 0.505428151      -19.462376      0.433281698     -112.047749      0.439641137     -43.5468811      0.547606829      156.679372
                     0.433281697     -112.047749      0.505687339     -19.4733988      0.548143707      156.632019      0.439582808     -43.5437934
                     0.439641137     -43.5468813       0.54814371      156.632019      0.243605192     -23.7680826      0.712586676     -94.0953047
                      0.54760683      156.679371      0.439582808     -43.5437935      0.712586676     -94.0953047      0.243539589     -23.7756193
91.34                0.505408713     -19.7309388      0.432154856     -112.318264      0.440743351     -43.7204249      0.555434281      156.329092
                     0.432154855     -112.318263      0.505670649     -19.7421646      0.555989586      156.280259       0.44068425     -43.7172387
                     0.440743351      -43.720425      0.555989589      156.280259      0.244123732     -23.8620697      0.711661299     -94.2658364
                     0.555434281      156.329092       0.44068425     -43.7172387      0.711661299     -94.2658363      0.244057034     -23.8695454
91.48                0.505378419     -19.9989091      0.431032016     -112.589255      0.441844648     -43.8941525      0.563445786       155.97075
                     0.431032015     -112.589255      0.505643078     -20.0103404       0.56402013      155.920386      0.441784774     -43.8908672
                     0.441844648     -43.8941527      0.564020133      155.920386      0.244642302     -23.9561563      0.710736267     -94.4363728
                     0.563445786       155.97075      0.441784775     -43.8908672      0.710736267     -94.4363728      0.244574503     -23.9635703
91.62                0.505337343     -20.2662774      0.429913205     -112.860725      0.442944997     -44.0680631      0.571647042      155.604047
                     0.429913204     -112.860725      0.505604701     -20.2779168      0.572241053        155.5521      0.442884349     -44.0646781
                     0.442944997     -44.0680632      0.572241056        155.5521      0.245160896     -24.0503422      0.709811593     -94.6069136
                     0.571647042      155.604047      0.442884349     -44.0646782      0.709811593     -94.6069136      0.245091992     -24.0576938
91.76                0.505285562     -20.5330346      0.428798448     -113.132672      0.444044362     -44.2421557      0.580043927      155.228672
                     0.428798447     -113.132671      0.505555593     -20.5448843      0.580658251      155.175087      0.443982941     -44.2386705
                     0.444044362     -44.2421558      0.580658254      155.175087       0.24567951     -24.1446273       0.70888729     -94.7774585
                     0.580043927      155.228672      0.443982941     -44.2386705       0.70888729     -94.7774585      0.245609495     -24.1519155
91.9                 0.505223152     -20.7991713       0.42768777     -113.405096      0.445142712     -44.4164293      0.588642507      154.844299
                     0.427687769     -113.405096      0.505495831     -20.8112339      0.589277807      154.789018      0.445080516     -44.4128434
                     0.445142712     -44.4164294       0.58927781      154.789018      0.246198138     -24.2390113      0.707963371     -94.9480071
                     0.588642507      154.844298      0.445080516     -44.4128434      0.707963371     -94.9480071      0.246127009     -24.2462354
92.04                0.505150194     -21.0646786      0.426581197     -113.677999      0.446240013      -44.590883      0.597449035      154.450587
                     0.426581196     -113.677999      0.505425494     -21.0769563      0.598105991      154.393552      0.446177041     -44.5871957
                     0.446240013     -44.5908831      0.598105994      154.393552      0.246716776      -24.333494      0.707039848      -95.118559
                     0.597449035      154.450587      0.446177041     -44.5871958      0.707039848      -95.118559      0.246644527     -24.3406533
92.18                0.505066768     -21.3295476      0.425478755      -113.95138       0.44733623     -44.7655157      0.606469953      154.047182
                     0.425478754      -113.95138      0.505344662     -21.3420428      0.607149262       153.98833      0.447272483     -44.7617266
                      0.44733623     -44.7655158      0.607149266      153.988329      0.247235418     -24.4280752      0.706116735     -95.2891139
                     0.606469953      154.047182      0.447272483     -44.7617267      0.706116736     -95.2891139      0.247162045     -24.4351688
92.32                0.504972955     -21.5937696      0.424380467     -114.225239      0.448431332     -44.9403265      0.615711894       153.63371
                     0.424380467     -114.225239      0.505253417     -21.6064845      0.616414267      153.572976      0.448366809      -44.936435
                     0.448431332     -44.9403266      0.616414271      153.572976       0.24775406     -24.5227547      0.705194045     -95.4596715
                     0.615711894       153.63371      0.448366809      -44.936435      0.705194045     -95.4596715      0.247679558     -24.5297818
92.46                0.504868839      -21.857336      0.423286361     -114.499576      0.449525283     -45.1153142      0.625181678      153.209784
                      0.42328636     -114.499576      0.505151843     -21.8702728      0.625907842      153.147099      0.449459984     -45.1113198
                     0.449525283     -45.1153143      0.625907846      153.147099      0.248272695     -24.6175322       0.70427179     -95.6302314
                     0.625181677      153.209784      0.449459984     -45.1113198       0.70427179     -95.6302314       0.24819706     -24.6244922
92.6                 0.504754505     -22.1202384       0.42219646     -114.774392       0.45061805     -45.2904778      0.634886312      152.774995
                     0.422196459     -114.774392      0.505040022     -22.1333993      0.635637008      152.710289      0.450551974     -45.2863799
                      0.45061805      -45.290478      0.635637012      152.710288      0.248791321     -24.7124077      0.703349983     -95.8007932
                     0.634886312      152.774995      0.450551974       -45.28638      0.703349983     -95.8007932      0.248714547     -24.7192996
92.74                0.504630039     -22.3824684      0.421110789     -115.049686      0.451709599     -45.4658163      0.644832989      152.328918
                     0.421110788     -115.049686      0.504918042     -22.3958556      0.645608968      152.262116      0.451642747     -45.4616144
                     0.451709599     -45.4658164      0.645608971      152.262116       0.24930993     -24.8073807      0.702428637     -95.9713566
                     0.644832989      152.328918      0.451642747     -45.4616144      0.702428637     -95.9713566      0.249232013     -24.8142038
92.88                0.504495527     -22.6440181      0.420029373     -115.325458      0.452799896     -45.6413285      0.655029079      151.871108
                     0.420029372     -115.325458      0.504785988     -22.6576337      0.655831101      151.802134      0.452732267      -45.637022
                     0.452799896     -45.6413286      0.655831105      151.802133      0.249828518     -24.9024512      0.701507763     -96.1419213
                     0.655029079      151.871107      0.452732267      -45.637022      0.701507764     -96.1419213      0.249749454     -24.9092046
93.02                0.504351059     -22.9048794      0.418952236     -115.601708      0.453888907     -45.8170132      0.665482122      151.401098
                     0.418952235     -115.601708      0.504643949     -22.9187254      0.666310958       151.32987      0.453820502     -45.8126016
                     0.453888907     -45.8170133      0.666310962       151.32987      0.250347081     -24.9976189      0.700587376      -96.312487
                     0.665482122      151.401098      0.453820502     -45.8126017      0.700587376     -96.3124869      0.250266865     -25.0043018
93.16                0.504196723     -23.1650445      0.417879403     -115.878436      0.454976597     -45.9928694      0.676199822      150.918401
                     0.417879403     -115.878436      0.504492015     -23.1791229      0.677056245      150.844836      0.454907416     -45.9883521
                     0.454976597     -45.9928695      0.677056249      150.844836      0.250865612     -25.0928835      0.699667487     -96.4830532
                     0.676199822      150.918401      0.454907416     -45.9883522      0.699667487     -96.4830531      0.250784239     -25.0994952
93.3                  0.50403261     -23.4245057      0.416810899     -116.155642      0.456062933     -46.1688958      0.687190031      150.422508
                     0.416810898     -116.155642      0.504330274     -23.4388186      0.688074818      150.346517      0.455992975     -46.1642724
                     0.456062933     -46.1688959      0.688074822      150.346516      0.251384106     -25.1882448      0.698748109     -96.6536196
                     0.687190031      150.422508      0.455992975     -46.1642724      0.698748109     -96.6536196      0.251301573     -25.1947845
93.44                0.503858811     -23.6832556      0.415746746     -116.433326       0.45714788     -46.3450912      0.698460738      149.912884
                     0.415746745     -116.433326      0.504158819     -23.6978049      0.699374661      149.834375      0.457077146     -46.3403611
                      0.45714788     -46.3450914      0.699374665      149.834375       0.25190256     -25.2837026      0.697829254      -96.824186
                     0.698460737      149.912883      0.457077146     -46.3403612      0.697829254      -96.824186       0.25181886     -25.2901694
93.58                 0.50367542     -23.9412868      0.414686969     -116.711486      0.458231403     -46.5214545      0.710020043      149.388971
                     0.414686968     -116.711486      0.503977742     -23.9560743      0.710963869      149.307849      0.458159893     -46.5166171
                     0.458231403     -46.5214547      0.710963874      149.307848      0.252420966     -25.3792567      0.696910935      -96.994752
                     0.710020043      149.388971      0.458159893     -46.5166172      0.696910935     -96.9947519      0.252336096     -25.3856498
93.72                0.503482529     -24.1985921      0.413631592     -116.990124      0.459313467     -46.6979844      0.721876142      148.850186
                     0.413631591     -116.990124      0.503787136     -24.2136198      0.722850626       148.76635      0.459241182     -46.6930393
                     0.459313467     -46.6979846       0.72285063       148.76635       0.25293932     -25.4749068      0.695993163     -97.1653172
                     0.721876142      148.850186      0.459241182     -46.6930393      0.695993163     -97.1653171      0.252853275     -25.4812253
93.86                0.503280233     -24.4551645      0.412580639     -117.269238       0.46039404     -46.8746797      0.734037292      148.295919
                     0.412580638     -117.269238      0.503587096     -24.4704341      0.735043169      148.209265      0.460320979     -46.8696262
                     0.460394039     -46.8746798      0.735043174      148.209265      0.253457617     -25.5706526      0.695075952     -97.3358813
                     0.734037292      148.295919       0.46032098     -46.8696262      0.695075952     -97.3358812      0.253370393     -25.5768958
94                   0.503068627     -24.7109971      0.411534133     -117.548829      0.461473084      -47.051539      0.746511782      147.725532
                     0.411534132     -117.548829      0.503377716     -24.7265104      0.747549762      147.635951       0.46139925     -47.0463766
                     0.461473084     -47.0515391      0.747549767      147.635951      0.253975851     -25.6664939      0.694159314     -97.5064439
                     0.746511781      147.725532       0.46139925     -47.0463767      0.694159314     -97.5064439      0.253887443      -25.672661
94.14                0.502847807     -24.9660831      0.410492097     -117.828895      0.462550566     -47.2285611      0.759307889      147.138358
                     0.410492096     -117.828895      0.503159093     -24.9818419      0.760378649      147.045737      0.462475958     -47.2232893
                     0.462550566     -47.2285612      0.760378654      147.045736      0.254494017     -25.7624304       0.69324326     -97.6770049
                     0.759307888      147.138358      0.462475958     -47.2232894       0.69324326     -97.6770049      0.254404422     -25.7685206
94.28                0.502617871      -25.220416      0.409454554     -118.109437      0.463626451     -47.4057446      0.772433835      146.533701
                     0.409454554     -118.109437      0.502931322     -25.2364219      0.773538008      146.437921       0.46355107      -47.400363
                     0.463626451     -47.4057447      0.773538013      146.437921      0.255012111      -25.858462      0.692327803     -97.8475637
                     0.772433835      146.533701       0.46355107      -47.400363      0.692327803     -97.8475637      0.254921322     -25.8644744
94.42                0.502378915     -25.4739894      0.408421529     -118.390453      0.464700704     -47.5830882       0.78589773      145.910835
                     0.408421528     -118.390453      0.502694502     -25.4902441      0.787035893      145.811773      0.464624551     -47.5775962
                     0.464700704     -47.5830883      0.787035898      145.811773      0.255530125     -25.9545882      0.691412955     -98.0181202
                     0.785897729      145.910835      0.464624551     -47.5775962      0.691412956     -98.0181201       0.25543814     -25.9605221
94.56                0.502131037      -25.726797      0.407393043     -118.671943      0.465773291     -47.7605906      0.799707504         145.269
                     0.407393042     -118.671943       0.50244873     -25.7433021      0.800880169       145.16653      0.465696366     -47.7549876
                      0.46577329     -47.7605907      0.800880174      145.166529      0.256048056      -26.050809      0.690498729     -98.1886739
                     0.799707503         145.269      0.465696366     -47.7549876      0.690498729     -98.1886738       0.25595487     -26.0566634
94.7                 0.501874338     -25.9788327      0.406369119     -118.953907      0.466844175     -47.9382503      0.813870838      144.607408
                     0.406369118     -118.953906      0.502194106     -25.9955897      0.815078432      144.501395       0.46676648     -47.9325358
                     0.466844175     -47.9382504      0.815078438      144.501395      0.256565898     -26.1471239      0.689585135     -98.3592245
                     0.813870837      144.607408       0.46676648     -47.9325359      0.689585135     -98.3592245      0.256471505     -26.1528981
94.84                0.501608915     -26.2300905       0.40534978     -119.236343      0.467913322      -48.116066      0.828395072      143.925234
                     0.405349779     -119.236343      0.501930728      -26.247101      0.829637926      143.815541      0.467834858     -48.1102395
                     0.467913322     -48.1160661      0.829637932       143.81554      0.257083645     -26.2435328      0.688672186     -98.5297717
                     0.828395071      143.925233      0.467834858     -48.1102396      0.688672186     -98.5297717      0.256988042     -26.2492259
94.98                 0.50133487     -26.4805647      0.404335048     -119.519251      0.468980697     -48.2940362      0.843287106      143.221621
                     0.404335047     -119.519251      0.501658697     -26.4978302      0.844565435      143.108105      0.468901464     -48.2880973
                     0.468980697     -48.2940364       0.84456544      143.108105      0.257601292     -26.3400354      0.687759894     -98.7003153
                     0.843287106      143.221621      0.468901465     -48.2880973      0.687759894     -98.7003152      0.257504475     -26.3456466
95.12                0.501052302     -26.7302496      0.403324946     -119.802631      0.470046265     -48.4721596      0.858553289       142.49568
                     0.403324945     -119.802631      0.501378112     -26.7477715      0.859867167      142.378193      0.469966265     -48.4661076
                     0.470046265     -48.4721597      0.859867172      142.378193      0.258118834     -26.4366313      0.686848271     -98.8708548
                     0.858553288      142.495679      0.469966265     -48.4661076      0.686848271     -98.8708547      0.258020798     -26.4421598
95.26                0.500761313     -26.9791397      0.402319495      -120.08648       0.47110999     -48.6504345      0.874199281      141.746485
                     0.402319494      -120.08648      0.501089076     -26.9969194      0.875548621      141.624875      0.471029225      -48.644269
                      0.47110999     -48.6504347      0.875548626      141.624875      0.258636265     -26.5333203      0.685937328     -99.0413899
                      0.87419928      141.746485      0.471029225     -48.6442691      0.685937328     -99.0413899      0.258537006     -26.5387652
95.4                 0.500462003     -27.2272296      0.401318718       -120.3708      0.472171838     -48.8288596      0.890229908      140.973079
                     0.401318717       -120.3708      0.500791688     -27.2452685      0.891614434      140.847188      0.472090309     -48.8225801
                     0.472171838     -48.8288598       0.89161444      140.847188       0.25915358     -26.6301022      0.685027077     -99.2119204
                     0.890229907      140.973079      0.472090309     -48.8225802      0.685027078     -99.2119203      0.259053094     -26.6354627
95.54                0.500154476     -27.4745143      0.400322636     -120.655587      0.473231773     -49.0074334      0.906648992      140.174471
                     0.400322635     -120.655587      0.500486052     -27.4928137      0.908068209      140.044137      0.473149481     -49.0010393
                     0.473231773     -49.0074335      0.908068215      140.044136      0.259670773     -26.7269766      0.684117531     -99.3824458
                      0.90664899      140.174471      0.473149481     -49.0010394      0.684117531     -99.3824458      0.259569055     -26.7322519
95.68                0.499838832     -27.7209886      0.399331271     -120.940842      0.474289761     -49.1861543      0.923459156      139.349637
                      0.39933127     -120.940842      0.500172269     -27.7395497      0.924912319      139.214693      0.474206706     -49.1796452
                      0.47428976     -49.1861544      0.924912325      139.214693      0.260187839     -26.8239433        0.6832087      -99.552966
                     0.923459155      139.349637      0.474206707     -49.1796452        0.6832087      -99.552966      0.260084885     -26.8291325
95.82                0.499515175     -27.9666476      0.398344645     -121.226564      0.475345765     -49.3650208      0.940661615      138.497523
                     0.398344644     -121.226564      0.499850441     -27.9854718      0.942147687        138.3578      0.475261951     -49.3583961
                     0.475345764     -49.3650209      0.942147694      138.357799      0.260704773     -26.9210019      0.682300596     -99.7234805
                     0.940661614      138.497523      0.475261951     -49.3583961      0.682300596     -99.7234805      0.260600579     -26.9261042
95.96                0.499183607     -28.2114867      0.397362777      -121.51275       0.47639975     -49.5440312       0.95825593      137.617048
                     0.397362776      -121.51275      0.499520671     -28.2305751      0.959773545       137.47237      0.476315178     -49.5372905
                      0.47639975     -49.5440314      0.959773551       137.47237      0.261221568     -27.0181522      0.681393231     -99.8939891
                     0.958255929      137.617047      0.476315178     -49.5372906      0.681393231     -99.8939891       0.26111613     -27.0231668
96.1                 0.498844232     -28.4555012      0.396385691     -121.799401      0.477451681     -49.7231842      0.976239742      136.707101
                      0.39638569     -121.799401      0.499183063      -28.474855      0.977787157      136.557293      0.477366353     -49.7163269
                     0.477451681     -49.7231843      0.977787164      136.557293       0.26173822     -27.1153939      0.680486616     -100.064491
                      0.97623974      136.707101      0.477366353      -49.716327      0.680486616     -100.064491      0.261631533     -27.1203198
96.24                0.498497151     -28.6986867      0.395413406     -122.086515      0.478501524     -49.9024779      0.994608474      135.766552
                     0.395413405     -122.086515      0.498837719      -28.718307      0.996183525      135.611435      0.478415441     -49.8955036
                     0.478501524     -49.9024781      0.996183532      135.611435      0.262254722     -27.2127267      0.679580762     -100.234987
                     0.994608472      135.766551      0.478415441     -49.8955037      0.679580762     -100.234987      0.262146783     -27.2175631
96.38                0.498142469     -28.9410389      0.394445943      -122.37409      0.479549242     -50.0819109                1      134.794251
                     0.394445942      -122.37409      0.498484742     -28.9609267                1      134.633646      0.479462406     -50.0748191
                     0.479549242      -50.081911                1      134.633646       0.26277107     -27.3101502      0.678675682     -100.405476
                               1      134.794251      0.479462406     -50.0748192      0.678675682     -100.405476      0.262661874     -27.3148964
96.52                0.497780289     -29.1825536      0.393483322     -122.662125        0.4805948     -50.2614814                1      133.789036
                     0.393483321     -122.662125      0.498124237     -29.2027101                1      133.622765      0.480507214     -50.2542716
                       0.4805948     -50.2614816                1      133.622764      0.263287257     -27.4076642      0.677771385     -100.575958
                               1      133.789036      0.480507214     -50.2542717      0.677771386     -100.575958      0.263176801     -27.4123192
96.66                0.497410714      -29.423227      0.392525565     -122.950619      0.481638164     -50.4411879                1       132.74974
                     0.392525564     -122.950619      0.497756306     -29.4436531                1      132.577623      0.481549829     -50.4338596
                     0.481638163      -50.441188                1      132.577622      0.263803279     -27.5052683      0.676867885     -100.746432
                               1       132.74974      0.481549829     -50.4338597      0.676867885     -100.746432      0.263691558     -27.5098314
96.8                 0.497033849      -29.663055       0.39157269     -123.239571      0.482679297     -50.6210286                1      131.675195
                     0.391572689     -123.239571      0.497381053     -29.6837517                1      131.497058      0.482590216     -50.6135813
                     0.482679297     -50.6210287                1      131.497057      0.264319129     -27.6029623       0.67596519     -100.916898
                               1      131.675195      0.482590216     -50.6135814      0.675965191     -100.916898      0.264206139     -27.6074325
96.94                0.496649796      -29.902034      0.390624719     -123.528978      0.483718165     -50.8010018                1      130.564246
                     0.390624718     -123.528978      0.496998582     -29.9230022                1      130.379919       0.48362834     -50.7934351
                     0.483718164      -50.801002                1      130.379918      0.264834802     -27.7007458      0.675063314     -101.087357
                               1      130.564246       0.48362834     -50.7934352      0.675063315     -101.087357      0.264720539     -27.7051224
97.08                0.496258659     -30.1401605      0.389681671     -123.818839      0.484754732     -50.9811059                1       129.41576
                      0.38968167     -123.818839      0.496608997     -30.1614011                1       129.22508      0.484664165     -50.9734192
                     0.484754731      -50.981106                1      129.225079      0.265350292     -27.7986185      0.674162267     -101.257806
                               1       129.41576      0.484664165     -50.9734193      0.674162267     -101.257806      0.265234752     -27.8029005
97.22                0.495860542     -30.3774309      0.388743565     -124.109153      0.485788963      -51.161339                1      128.228638
                     0.388743564     -124.109153      0.496212401     -30.3989448                1      128.031451      0.485697657      -51.153532
                     0.485788963     -51.1613391                1      128.031451      0.265865594     -27.8965801       0.67326206     -101.428247
                               1      128.228638      0.485697657      -51.153532       0.67326206     -101.428247      0.265748774     -27.9007667
97.36                0.495455548      -30.613842      0.387810421     -124.399917      0.486820823     -51.3416995                1      127.001832
                      0.38781042     -124.399917      0.495808897       -30.63563                1      126.797997      0.486728781     -51.3337716
                     0.486820823     -51.3416996                1      126.797996      0.266380702     -27.9946302      0.672362704     -101.598679
                               1      127.001832      0.486728781     -51.3337716      0.672362704     -101.598679      0.266262597     -27.9987207
97.5                  0.49504378     -30.8493907      0.386882258     -124.691131      0.487850277     -51.5221855                1      125.734357
                     0.386882257     -124.691131      0.495398589     -30.8714535                1      125.523747      0.487757501     -51.5141362
                     0.487850277     -51.5221856                1      125.523747      0.266895611     -28.0927686      0.671464209     -101.769102
                               1      125.734357      0.487757501     -51.5141363       0.67146421     -101.769102      0.266776217     -28.0967619
97.64                0.494625342      -31.084074      0.385959094     -124.982792      0.488877289     -51.7027952                1      124.425315
                     0.385959093     -124.982792      0.494981581     -31.1064123                1      124.207823      0.488783782     -51.6946242
                     0.488877289     -51.7027954                1      124.207822      0.267410314     -28.1909948      0.670566588     -101.939515
                               1      124.425315      0.488783782     -51.6946243      0.670566588     -101.939515      0.267289627     -28.1948903
97.78                0.494200336     -31.3178888       0.38504095     -125.274898      0.489901826     -51.8835269                1      123.073911
                     0.385040949     -125.274898      0.494557974     -31.3405035                1      122.849451       0.48980759     -51.8752337
                     0.489901825     -51.8835271                1      122.849451      0.267924806     -28.2893087       0.66966985     -102.109918
                               1      123.073911       0.48980759     -51.8752337       0.66966985     -102.109918      0.267802823     -28.2931053
97.92                0.493768866     -31.5508327      0.384127843     -125.567447       0.49092385     -52.0643788                1      121.679479
                     0.384127842     -125.567447      0.494127873     -31.5737243                1      121.447992      0.490828889     -52.0559628
                      0.49092385     -52.0643789                1      121.447991      0.268439081     -28.3877097      0.668774006     -102.280311
                               1      121.679479      0.490828889     -52.0559629      0.668774007     -102.280311      0.268315798     -28.3914067
98.06                0.493331033     -31.7829028      0.383219791     -125.860438      0.491943329     -52.2453489                1      120.241504
                      0.38321979     -125.860438      0.493691379      -31.806072                1       120.00296      0.491847645     -52.2368098
                     0.491943329      -52.245349                1       120.00296      0.268953134     -28.4861977      0.667879068     -102.450693
                               1      120.241504      0.491847645     -52.2368098      0.667879068     -102.450693      0.268828547     -28.4897941
98.2                 0.492886941     -32.0140967      0.382316814     -126.153867      0.492960226     -52.4264354                1      118.759649
                     0.382316813     -126.153867      0.493248596     -32.0375441                1      118.514054      0.492863823     -52.4177727
                     0.492960226     -52.4264355                1      118.514053      0.269466959     -28.5847722      0.666985045     -102.621065
                               1      118.759648      0.492863823     -52.4177728      0.666985045     -102.621065      0.269341063     -28.5882672
98.34                 0.49243669     -32.2444122      0.381418928     -126.447734      0.493974508     -52.6076365                1      117.233781
                     0.381418927     -126.447734      0.492799624     -32.2681383                1       116.98118      0.493877388     -52.5988497
                     0.493974508     -52.6076366                1      116.981179      0.269980549     -28.6834328      0.666091949     -102.791425
                               1      117.233781      0.493877388     -52.5988498      0.666091949     -102.791425      0.269853343     -28.6868256
98.48                0.491980384     -32.4738469      0.380526152     -126.742036      0.494986138     -52.7889501                1      115.664001
                     0.380526151     -126.742036      0.492344567     -32.4978523                1      115.404482      0.494888306      -52.780039
                     0.494986138     -52.7889503                1      115.404481      0.270493901     -28.7821793      0.665199789     -102.961774
                               1         115.664      0.494888306      -52.780039      0.665199789     -102.961774      0.270365379      -28.785469
98.62                0.491518122     -32.7023988      0.379638502      -127.03677      0.495995084     -52.9703745                1      114.050669
                     0.379638501      -127.03677      0.491883525      -32.726684                1      113.784368      0.495896541     -52.9613384
                     0.495995083     -52.9703747                1      113.784367      0.271007006     -28.8810113      0.664308577     -103.132111
                               1      114.050669      0.495896541     -52.9613385      0.664308577     -103.132111      0.270877165     -28.8841971
98.76                0.491050006     -32.9300659      0.378755998     -127.331934      0.497001309     -53.1519077                1      112.394434
                     0.378755997     -127.331934        0.4914166     -32.9546313                1      112.121538       0.49690206     -53.1427463
                     0.497001308     -53.1519078                1      112.121537      0.271519861     -28.9799285      0.663418322     -103.302436
                               1      112.394434       0.49690206     -53.1427463      0.663418322     -103.302436      0.271388697     -28.9830094
98.9                 0.490576136     -33.1568463      0.377878654     -127.627526      0.498004779     -53.3335477                1      110.696257
                     0.377878653     -127.627525      0.490943892     -33.1816924                1       110.41701      0.497904828     -53.3242605
                     0.498004779     -53.3335478                1      110.417009      0.272032459     -29.0789304      0.662529036     -103.472748
                               1      110.696257      0.497904828     -53.3242605      0.662529036     -103.472748      0.271899969     -29.0819056
99.04                0.490096613     -33.3827385      0.377006489     -127.923542       0.49900546     -53.5152925                1      108.957435
                     0.377006488     -127.923542      0.490465501     -33.4078656                1      108.672137       0.49890481     -53.5058791
                      0.49900546     -53.5152926                1      108.672136      0.272544793     -29.1780167      0.661640728     -103.643048
                               1      108.957434       0.49890481     -53.5058792      0.661640728     -103.643048      0.272410974     -29.1808853
99.18                0.489611536     -33.6077407      0.376139519     -128.219982      0.500003318     -53.6971402                1      107.179617
                     0.376139518     -128.219982      0.489981528     -33.6331492                1      106.888631      0.499901972     -53.6876002
                     0.500003318     -53.6971404                1       106.88863       0.27305686     -29.2771871      0.660753408     -103.813335
                               1      107.179617      0.499901972     -53.6876003      0.660753408     -103.813335      0.272921707     -29.2799483
99.32                0.489121005     -33.8318515      0.375277761     -128.516842      0.500998318     -53.8790888                1      105.364821
                      0.37527776     -128.516842      0.489492071     -33.8575418                1      105.068569       0.50089628     -53.8694218
                     0.500998318     -53.8790889                1      105.068568      0.273568652     -29.3764411      0.659867088     -103.983609
                               1      105.364821       0.50089628     -53.8694218      0.659867088     -103.983609      0.273432161      -29.379094
99.46                0.488625118     -34.0550695       0.37442123     -128.814118      0.501990427     -54.0611362                1      103.515439
                     0.374421229     -128.814118      0.488997231     -34.0810418                1      103.214404      0.501887701     -54.0513418
                     0.501990427     -54.0611364                1      103.214403      0.274080163     -29.4757785      0.658981776     -104.153869
                               1      103.515439      0.501887701     -54.0513418      0.658981776     -104.153869      0.273942333     -29.4783222
99.6                 0.488123973     -34.2773936      0.373569943      -129.11181      0.502979609     -54.2432805                1      101.634234
                     0.373569942      -129.11181      0.488497104     -34.3036482                1       101.32896      0.502876199     -54.2333582
                     0.502979609     -54.2432806                1      101.328959      0.274591389     -29.5751988      0.658097483     -104.324116
                               1      101.634234      0.502876199     -54.2333582      0.658097484     -104.324116      0.274452214     -29.5776324
99.74                0.487617668     -34.4988225      0.372723915     -129.409912      0.503965832     -54.4255195                1      99.7243365
                     0.372723914     -129.409912      0.487991789     -34.5253596                1      99.4154208      0.503861742     -54.4154689
                     0.503965832     -54.4255196                1      99.4154198      0.275102322     -29.6747016       0.65721422     -104.494348
                               1      99.7243364      0.503861742      -54.415469       0.65721422     -104.494348        0.2749618     -29.6770243
99.88                  0.4871063     -34.7193553      0.371883162     -129.708424      0.504949061     -54.6078511                1      97.7892185
                     0.371883161     -129.708424      0.487481383     -34.7461751                1      97.4773108      0.504844295      -54.597672
                      0.50494906     -54.6078513                1      97.4773099      0.275612958     -29.7742866      0.656331995     -104.664566
                               1      97.7892184      0.504844295      -54.597672      0.656331995     -104.664566      0.275471085     -29.7764975
100.02               0.486589966     -34.9389911        0.3710477     -130.007341      0.505929262     -54.7902734                1      95.8326716
                     0.371047699     -130.007341      0.486965983     -34.9660938                1      95.5184662      0.505823825     -54.7799653
                     0.505929262     -54.7902736                1      95.5184653       0.27612329     -29.8739534      0.655450819     -104.834769
                               1      95.8326715      0.505823825     -54.7799653       0.65545082     -104.834769      0.275980063     -29.8760517
100.16               0.486068762      -35.157729      0.370217542     -130.306661      0.506906402     -54.9727842                1      93.8587671
                     0.370217541     -130.306661      0.486445686     -35.1851148                1      93.5429953      0.506800298     -54.9623466
                     0.506906402     -54.9727844                1      93.5429943      0.276633313     -29.9737015      0.654570702     -105.004958
                               1      93.8587671      0.506800298     -54.9623467      0.654570703     -105.004958      0.276488729     -29.9756863
100.3                0.485542782     -35.3755685      0.369392705     -130.606381      0.507880448     -55.1553814                1      91.8718106
                     0.369392704     -130.606381      0.485920586     -35.4032375                1      91.5552315      0.507773681     -55.1448141
                     0.507880448     -55.1553816                1      91.5552306       0.27714302     -30.0735307      0.653691654     -105.175131
                               1      91.8718106      0.507773681     -55.1448141      0.653691654     -105.175131      0.276997075     -30.0754011
100.44               0.485012123     -35.5925089      0.368573202     -130.906496      0.508851367     -55.3380629                1      89.8762882
                     0.368573201     -130.906496      0.485390779     -35.6204611                1       89.559679       0.50874394     -55.3273653
                     0.508851367      -55.338063                1       89.559678      0.277652406     -30.1734406      0.652813684     -105.345288
                               1      89.8762882       0.50874394     -55.3273654      0.652813684     -105.345288      0.277505097     -30.1751956
100.58               0.484476877     -35.8085498      0.367759048     -131.207005      0.509819124     -55.5208265                1       87.876807
                     0.367759047     -131.207005      0.484856358     -35.8367853                1      87.5609518      0.509711044     -55.5099984
                     0.509819124     -55.5208266                1      87.5609508      0.278161465     -30.2734306      0.651936801      -105.51543
                               1       87.876807      0.509711044     -55.5099984      0.651936801     -105.515429      0.278012788     -30.2750695
100.72               0.483937139     -36.0236908      0.366950257     -131.507904      0.510783687     -55.7036701                1       85.878031
                     0.366950256     -131.507904      0.484317419     -36.0522097                1      85.5637101      0.510674957      -55.692711
                     0.510783687     -55.7036702                1      85.5637092       0.27867019     -30.3735004      0.651061016     -105.685555
                               1       85.878031      0.510674957     -55.6927111      0.651061016     -105.685555      0.278520143     -30.3750223
100.86               0.483393001     -36.2379317      0.366146843     -131.809188      0.511745024     -55.8865914                1      83.8846154
                     0.366146842     -131.809188      0.483774053     -36.2667339                1      83.5725942      0.511635649     -55.8755011
                     0.511745023     -55.8865915                1      83.5725932      0.279178577     -30.4736497      0.650186338     -105.855664
                               1      83.8846154      0.511635649     -55.8755011      0.650186338     -105.855664      0.279027156     -30.4750537
101                  0.482844555     -36.4512723      0.365348819     -132.110856        0.5127031     -56.0695883                1      81.9011408
                     0.365348818     -132.110856      0.483226354     -36.4803578                1      81.5921591      0.512593086     -56.0583664
                       0.5127031     -56.0695885                1      81.5921581      0.279686618      -30.573878      0.649312777     -106.025756
                               1      81.9011408      0.512593086     -56.0583664      0.649312777     -106.025756       0.27953382     -30.5751632
101.14               0.482291893     -36.6637125      0.364556199     -132.412902      0.513657885     -56.2526587                1      79.9320505
                     0.364556198     -132.412902      0.482674412     -36.6930813                1      79.6268128      0.513547235     -56.2413047
                     0.513657884     -56.2526588                1      79.6268118      0.280194309     -30.6741849      0.648440341     -106.195831
                               1      79.9320505      0.513547235     -56.2413048      0.648440341     -106.195831      0.280040131     -30.6753504
101.28               0.481735105     -36.8752525      0.363768995     -132.715324      0.514609344     -56.4358002                1       77.981592
                     0.363768994     -132.715324      0.482118319     -36.9049045                1      77.6807589      0.514498065     -56.4243139
                     0.514609344     -56.4358003                1       77.680758      0.280701642       -30.77457      0.647569041     -106.365889
                               1      77.9815921      0.514498065      -56.424314      0.647569041     -106.365889      0.280546081      -30.775615
101.42               0.481174282     -37.0858923      0.362987221     -133.018118      0.515557447     -56.6190107                1      76.0537657
                      0.36298722     -133.018118      0.481558164     -37.1158273                1      75.7579464      0.515445543     -56.6073917
                     0.515557447     -56.6190108                1      75.7579455      0.281208613     -30.8750328      0.646698885      -106.53593
                               1      76.0537658      0.515445543     -56.6073918      0.646698885      -106.53593      0.281051666     -30.8759565
101.56               0.480609512     -37.2956321       0.36221089      -133.32128      0.516502161     -56.8022878                1      74.1522805
                     0.362210889      -133.32128      0.480994038     -37.3258501                1      73.8620273      0.516389637     -56.7905359
                     0.516502161      -56.802288                1      73.8620264      0.281715215      -30.975573      0.645829883     -106.705952
                               1      74.1522806      0.516389637     -56.7905359      0.645829883     -106.705952      0.281556879     -30.9763744
101.7                0.480040885     -37.5044723      0.361440013     -133.624807      0.517443454     -56.9856295                1      72.2805197
                     0.361440011     -133.624807       0.48042603     -37.5349732                1      71.9963237      0.517330315     -56.9737441
                     0.517443454     -56.9856296                1      71.9963228      0.282221442     -31.0761902      0.644962044     -106.875957
                               1      72.2805198      0.517330315     -56.9737442      0.644962044     -106.875957      0.282061714     -31.0768684
101.84               0.479468487     -37.7124133      0.360674602     -133.928693      0.518381294     -57.1690333                1      70.4415151
                     0.360674601     -133.928693      0.479854226     -37.7431968                1      70.1638037      0.518267546     -57.1570143
                     0.518381294     -57.1690334                1      70.1638028      0.282727289     -31.1768839      0.644095377     -107.045943
                               1      70.4415153      0.518267546     -57.1570143      0.644095377     -107.045942      0.282566166      -31.177438
101.98               0.478892407     -37.9194557      0.359914669     -134.232936       0.51931565      -57.352497                1      68.6379317
                     0.359914668     -134.232936      0.479278715     -37.9505216                1      68.3670674      0.519201298      -57.340344
                      0.51931565     -57.3524971                1      68.3670666      0.283232749     -31.2776537      0.643229891      -107.21591
                               1      68.6379318      0.519201298      -57.340344      0.643229891      -107.21591      0.283070228     -31.2780829
102.12               0.478312729     -38.1255999      0.359160226     -134.537531      0.520246491     -57.5360183                1      66.8720599
                     0.359160225      -134.53753      0.478699583      -38.156948                1      66.6083411       0.52013154      -57.523731
                     0.520246491     -57.5360184                1      66.6083403      0.283737816     -31.3784991      0.642365595     -107.385858
                               1        66.87206       0.52013154      -57.523731      0.642365595     -107.385858      0.283573894     -31.3788026
102.26                0.47772954     -38.3308467      0.358411284     -134.842473      0.521173785     -57.7195949                1      65.1458176
                     0.358411283     -134.842473      0.478116915     -38.3624768                1        64.88948      0.521058241     -57.7071729
                     0.521173784      -57.719595                1      64.8894792      0.284242484     -31.4794198      0.641502498     -107.555787
                               1      65.1458177      0.521058241      -57.707173      0.641502499     -107.555787      0.284077159     -31.4795966
102.4                0.477142924     -38.5351968      0.357667854      -135.14776      0.522097501     -57.9032244                1      63.4607584
                     0.357667853      -135.14776      0.477530796     -38.5671086                1       63.211978       0.52198137     -57.8906675
                     0.522097501     -57.9032246                1      63.2119773      0.284746748     -31.5804153       0.64064061     -107.725696
                               1      63.4607586       0.52198137     -57.8906676       0.64064061     -107.725696      0.284580016     -31.5804645
102.54               0.476552966     -38.7386511      0.356929947     -135.453386      0.523017608     -58.0869047                1      61.8180868
                     0.356929946     -135.453386      0.476941311     -38.7708443                1      61.5769832      0.522900896     -58.0742125
                     0.523017608     -58.0869048                1      61.5769825      0.285250601     -31.6814852      0.639779938     -107.895586
                               1       61.818087      0.522900896     -58.0742125      0.639779938     -107.895586       0.28508246     -31.6814059
102.68               0.475959747     -38.9412105      0.356197573     -135.759347      0.523934077     -58.2706332                1      60.2186775
                     0.356197572     -135.759347      0.476348543     -38.9736848                1      59.9853182      0.523816789     -58.2578055
                     0.523934077     -58.2706333                1      59.9853174      0.285754037     -31.7826289      0.638920491     -108.065455
                               1      60.2186777      0.523816789     -58.2578055      0.638920491     -108.065455      0.285584485     -31.7824203
102.82               0.475363351      -39.142876      0.355470741     -136.065638      0.524846877     -58.4544076                1       58.663099
                      0.35547074     -136.065638      0.475752575     -39.1756311                1      58.4375039      0.524729019     -58.4414441
                     0.524846876     -58.4544077                1      58.4375032      0.286257051     -31.8838462      0.638062279     -108.235304
                               1      58.6630992      0.524729019     -58.4414441      0.638062279     -108.235304      0.286086084     -31.8835074
102.96               0.474763858     -39.3436488      0.354749463     -136.372256      0.525755977     -58.6382256                1      57.1516392
                     0.354749462     -136.372256      0.475153487     -39.3766842                1      56.9337859      0.525637555      -58.625126
                     0.525755976     -58.6382257                1      56.9337853      0.286759636     -31.9851364      0.637205309     -108.405132
                               1      57.1516394      0.525637555      -58.625126       0.63720531     -108.405132      0.286587252     -31.9846666
103.1                 0.47416135     -39.5435298      0.354033748     -136.679195      0.526661347     -58.8220848                1      55.6843333
                     0.354033747     -136.679195      0.474551361     -39.5768453                1      55.4741616      0.526542368     -58.8088488
                     0.526661347     -58.8220849                1       55.474161      0.287261786     -32.0864993      0.636349591     -108.574939
                               1      55.6843335      0.526542368     -58.8088488      0.636349592     -108.574939      0.287087983     -32.0858975
103.24               0.473555905     -39.7425205      0.353323604      -136.98645      0.527562959     -59.0059828                1      54.2609912
                     0.353323603      -136.98645      0.473946277     -39.7761156                1      54.0584081      0.527443428     -58.9926102
                     0.527562959     -59.0059829                1      54.0584074      0.287763496     -32.1879343      0.635495133     -108.744725
                               1      54.2609914      0.527443428     -58.9926102      0.635495133     -108.744725       0.28758827     -32.1871997
103.38               0.472947604      -39.940622      0.352619041     -137.294018      0.528460782     -59.1899172                1      52.8812255
                      0.35261904     -137.294018      0.473338314     -39.9744964                1      52.6861097      0.528340705     -59.1764077
                     0.528460782     -59.1899174                1      52.6861091      0.288264759      -32.289441      0.634641943      -108.91449
                               1      52.8812257      0.528340705     -59.1764077      0.634641944      -108.91449      0.288088108     -32.2885726
103.52               0.472336524     -40.1378359      0.351920068     -137.601893      0.529354788     -59.3738856                1      51.5444779
                     0.351920067     -137.601893       0.47272755      -40.171989                1      51.3566848      0.529234171     -59.3602389
                     0.529354788     -59.3738858                1      51.3566842      0.288765569     -32.3910188       0.63379003     -109.084232
                               1      51.5444781      0.529234171     -59.3602389      0.633790031     -109.084232      0.288587491     -32.3900159
103.66               0.471722742     -40.3341634      0.351226693     -137.910071      0.530244947     -59.5578856                1      50.2500454
                     0.351226692     -137.910071      0.472114063     -40.3685948                1      50.0694107      0.530123797     -59.5441014
                     0.530244947     -59.5578858                1      50.0694101       0.28926592     -32.4926675      0.632939402     -109.253953
                               1      50.2500456      0.530123797     -59.5441015      0.632939403     -109.253953      0.289086413     -32.4915291
103.8                0.471106334     -40.5296062      0.350538925     -138.218545      0.531131231     -59.7419148                1      48.9971035
                     0.350538924     -138.218545       0.47149793     -40.5643155                1      48.8234474      0.531009555     -59.7279929
                     0.531131231     -59.7419149                1      48.8234468      0.289765806     -32.5943864      0.632090068     -109.423651
                               1      48.9971037      0.531009554     -59.7279929      0.632090068     -109.423651      0.289584867     -32.5931117
103.94               0.470487377     -40.7241658       0.34985677     -138.527312      0.532013611     -59.9259706                1      47.7847287
                     0.349856769     -138.527312      0.470879225     -40.7591525                1       47.617859      0.531891414     -59.9119108
                     0.532013611     -59.9259707                1      47.6178584      0.290265222     -32.6961752      0.631242035     -109.593326
                               1      47.7847289      0.531891414     -59.9119108      0.631242035     -109.593326      0.290082848     -32.6947632
104.08               0.469865944     -40.9178439      0.349180237     -138.836367      0.532892059     -60.1100507                1      46.6119181
                     0.349180236     -138.836367      0.470258025     -40.9531074                1      46.4516336      0.532769349     -60.0958527
                     0.532892059     -60.1100508                1      46.4516331       0.29076416     -32.7980333      0.630395311     -109.762979
                               1      46.6119183      0.532769349     -60.0958527      0.630395312     -109.762979       0.29058035     -32.7964832
104.22               0.469242111     -41.1106422      0.348509333     -139.145703      0.533766547     -60.2941526                1      45.4776079
                     0.348509332     -139.145703      0.469634404      -41.146182                1       45.323701       0.53364333     -60.2798162
                     0.533766547     -60.2941527                1      45.3237005      0.291262616     -32.8999603      0.629549906     -109.932608
                               1      45.4776081       0.53364333     -60.2798162      0.629549906     -109.932608      0.291077366     -32.8982712
104.36               0.468615949     -41.3025624      0.347844065     -139.455316      0.534637047     -60.4782739                1      44.3806888
                     0.347844064     -139.455316      0.469008434      -41.338378                1       44.232948       0.53451333     -60.4637988
                     0.534637047      -60.478274                1      44.2329475      0.291760582     -33.0019557      0.628705826     -110.102214
                               1      44.3806891       0.53451333     -60.4637989      0.628705826     -110.102214      0.291573892     -33.0001268
104.5                 0.46798753     -41.4936064       0.34718444       -139.7652      0.535503532      -60.662412                1      43.3200206
                     0.347184439       -139.7652      0.468380188     -41.5296973                1      43.1782322      0.535379321     -60.6477981
                     0.535503532     -60.6624121                1      43.1782318      0.292258054     -33.1040191       0.62786308     -110.271796
                               1      43.3200208      0.535379321     -60.6477981       0.62786308     -110.271796       0.29206992     -33.1020494
104.64               0.467356927     -41.6837762      0.346530463      -140.07535      0.536365975     -60.8465645                1      42.2944439
                     0.346530462      -140.07535      0.467749737     -41.7201417                1      42.1583943      0.536241277     -60.8318115
                     0.536365975     -60.8465646                1      42.1583939      0.292755024     -33.2061499      0.627021676     -110.441354
                               1      42.2944441      0.536241277     -60.8318115      0.627021676     -110.441354      0.292565445     -33.2040386
104.78               0.466724209     -41.8730735      0.345882142     -140.385761      0.537224349     -61.0307288                1      41.3027911
                     0.345882141     -140.385761      0.467117153     -41.9097132                1      41.1722678      0.537099171     -61.0158366
                     0.537224349      -61.030729                1      41.1722674      0.293251487     -33.3083477      0.626181621     -110.610887
                               1      41.3027913      0.537099171     -61.0158367      0.626181621     -110.610887      0.293060461     -33.3060939
104.92               0.466089447     -42.0615006      0.345239482     -140.696427      0.538078627     -61.2149026                1      40.3438949
                     0.345239481     -140.696427      0.466482504     -42.0984137                1       40.218688      0.537952976     -61.1998709
                     0.538078627     -61.2149027                1      40.2186876      0.293747437      -33.410612      0.625342923     -110.780396
                               1      40.3438951      0.537952976      -61.199871      0.625342923     -110.780396      0.293554961     -33.4082149
105.06               0.465452708     -42.2490594      0.344602488     -141.007342      0.538928783     -61.3990833                1      39.4165961
                     0.344602487     -141.007342      0.465845861     -42.2862453                1      39.2964994      0.538802666     -61.3839119
                     0.538928782     -61.3990834                1       39.296499      0.294242868     -33.5129422      0.624505591      -110.94988
                               1      39.4165964      0.538802666      -61.383912      0.624505591      -110.94988      0.294048941     -33.5104009
105.2                 0.46481406      -42.435752      0.343971165     -141.318501       0.53977479     -61.5832683                1        38.51975
                     0.343971164     -141.318501       0.46520729     -42.4732102                1      38.4045614      0.539648215     -61.5679571
                      0.53977479     -61.5832684                1       38.404561      0.294737774      -33.615338      0.623669631     -111.119339
                               1      38.5197502      0.539648215     -61.5679571      0.623669631     -111.119339      0.294542393     -33.6126516
105.34               0.464173571     -42.6215806      0.343345519     -141.629899      0.540616624     -61.7674552                1       37.652231
                     0.343345518     -141.629899       0.46456686     -42.6593104                1      37.5417535      0.540489597      -61.752004
                     0.540616624     -61.7674553                1      37.5417532      0.295232148     -33.7177988      0.622835051     -111.288772
                               1      37.6522312      0.540489597      -61.752004      0.622835051     -111.288772      0.295035312     -33.7149664
105.48               0.463531306     -42.8065475      0.342725554     -141.941528      0.541454258     -61.9516414                1      36.8129372
                     0.342725553     -141.941528      0.463924636     -42.8445482                1      36.7069795      0.541326787       -61.93605
                     0.541454258     -61.9516415                1      36.7069791      0.295725985     -33.8203242      0.622001859      -111.45818
                               1      36.8129374      0.541326787       -61.93605      0.622001859      -111.45818      0.295527691     -33.8173449
105.62               0.462887332      -42.990655      0.342111274     -142.253383      0.542287667     -62.1358244      0.999705424      36.0007936
                     0.342111273     -142.253383      0.463280684     -43.0289259      0.995630518        35.89917      0.542159759     -62.1200926
                     0.542287667     -62.1358245      0.995630509      35.8991696      0.296219279     -33.9229135      0.621170062     -111.627561
                     0.999705422      36.0007938      0.542159759     -62.1200926      0.621170063     -111.627561      0.296019526     -33.9197865
105.76               0.462241711     -43.1739052      0.341502683     -142.565459      0.543116827     -62.3200017      0.984423182      35.2147543
                     0.341502682     -142.565459      0.462635069     -43.2124457      0.980434008      35.1172853       0.54298849     -62.3041293
                     0.543116827     -62.3200018      0.980433998       35.117285      0.296712023     -34.0255664      0.620339669     -111.796916
                      0.98442318      35.2147545       0.54298849     -62.3041294      0.620339669     -111.796916      0.296510809     -34.0222908
105.9                0.461594509     -43.3563007      0.340899785      -142.87775      0.543941713     -62.5041706      0.969477941      34.4538046
                     0.340899784      -142.87775      0.461987855       -43.39511      0.965573416      34.3603172      0.543812953     -62.4881576
                     0.543941713     -62.5041708      0.965573407      34.3603169      0.297204212     -34.1282823      0.619510685     -111.966245
                     0.969477939      34.4538049      0.543812953     -62.4881577      0.619510685     -111.966245      0.297001535     -34.1248572
106.04               0.460945787     -43.5378438      0.340302583     -143.190248        0.5447623     -62.6883288      0.954868375      33.7169625
                     0.340302582     -143.190248      0.461339104     -43.5769213      0.951047248      33.6272898      0.544633126     -62.6721749
                       0.5447623     -62.6883289      0.951047239      33.6272895      0.297695839     -34.2310607      0.618683118     -112.135547
                     0.954868374      33.7169628      0.544633126      -62.672175      0.618683118     -112.135547      0.297491698     -34.2274852
106.18               0.460295607     -43.7185369       0.33971108     -143.502949      0.545578565     -62.8724736      0.940592053      33.0032791
                     0.339711079     -143.502949      0.460688879     -43.7578819      0.936852932      32.9172607      0.545448984     -62.8561787
                     0.545578565     -62.8724737      0.936852923      32.9172605      0.298186899      -34.333901      0.617856976     -112.304821
                     0.940592052      33.0032793      0.545448984     -62.8561787      0.617856976     -112.304821      0.297981292     -34.3301744
106.32               0.459644031     -43.8983827      0.339125279     -143.815846      0.546390484     -63.0566024      0.926645607      32.3118392
                     0.339125278     -143.815846      0.460037241     -43.9379943      0.922986988      32.2293212      0.546260503     -63.0401664
                     0.546390484     -63.0566025      0.922986979      32.2293209      0.298677385     -34.4368029      0.617032265     -112.474068
                     0.926645606      32.3118394      0.546260503     -63.0401664      0.617032266     -112.474068      0.298470311     -34.4329242
106.46               0.458991118     -44.0773836      0.338545182     -144.128932      0.547198034     -63.2407127      0.913024882      31.6417616
                      0.33854518     -144.128932       0.45938425     -44.1172612      0.909445171      31.5625961      0.547067661     -63.2241354
                     0.547198034     -63.2407128      0.909445163      31.5625959      0.299167292     -34.5397658      0.616208994     -112.643288
                     0.913024881      31.6417618      0.547067661     -63.2241355      0.616208994     -112.643288      0.298958748     -34.5357341
106.6                0.458336928     -44.2555422      0.337970791     -144.442202      0.548001191     -63.4248019      0.899725069      30.9921986
                      0.33797079     -144.442202      0.458729966      -44.295685      0.896222604      30.9162442      0.547870434     -63.4080833
                     0.548001191      -63.424802      0.896222596      30.9162439      0.299656613     -34.6427891      0.615387168     -112.812479
                     0.899725067      30.9921988      0.547870434     -63.4080833      0.615387169     -112.812479      0.299446599     -34.6386036
106.74                0.45768152     -44.4328611      0.337402108     -144.755649      0.548799933     -63.6088674      0.886740819       30.362336
                     0.337402106     -144.755649      0.458074448     -44.4732683      0.883313888      30.2894571        0.5486688     -63.5920074
                     0.548799933     -63.6088676       0.88331388      30.2894569      0.300145343     -34.7458723      0.614566795     -112.981642
                     0.886740818      30.3623362        0.5486688     -63.5920074      0.614566796     -112.981642      0.299933856     -34.7415322
106.88                0.45702495      -44.609343      0.336839134     -145.069266      0.549594238     -63.7929068      0.874066353      29.7513922
                     0.336839133     -145.069266      0.457417753     -44.6500139      0.870713205      29.6814593      0.549462736     -63.7759051
                     0.549594238     -63.7929069      0.870713197       29.681459      0.300633475      -34.849015      0.613747882     -113.150776
                     0.874066352      29.7513924      0.549462736     -63.7759051      0.613747883     -113.150776      0.300420515     -34.8445193
107.02               0.456367277     -44.7849907      0.336281871     -145.383047      0.550384083     -63.9769173      0.861695541      29.1586177
                     0.336281869     -145.383047      0.456759939     -44.8259244      0.858414406      29.0915068       0.55025222     -63.9597739
                     0.550384083     -63.9769174      0.858414399      29.0915066      0.301121003     -34.9522166      0.612930436     -113.319882
                      0.86169554      29.1586179       0.55025222     -63.9597739      0.612930436     -113.319882      0.300906568     -34.9475644
107.16               0.455708555     -44.9598067      0.335730318     -145.696986      0.551169447     -64.1608964      0.849621988      28.5832942
                     0.335730317     -145.696986      0.456101062     -45.0010025      0.846411085       28.518887      0.551037231     -64.1436112
                     0.551169446     -64.1608966      0.846411077      28.5188867      0.301607922     -35.0554765      0.612114463     -113.488959
                     0.849621987      28.5832944      0.551037231     -64.1436113      0.612114463     -113.488959       0.30139201     -35.0506671
107.3                0.455048841      -45.133794      0.335184478     -146.011076      0.551950308     -64.3448416      0.837839101      28.0247339
                     0.335184477     -146.011076      0.455441178     -45.1752511      0.834696645      27.9629172      0.551817748     -64.3274145
                     0.551950308     -64.3448417      0.834696637      27.9629169      0.302094225     -35.1587942       0.61129997     -113.658006
                       0.8378391      28.0247341      0.551817748     -64.3274145       0.61129997     -113.658006      0.301876836     -35.1538267
107.44               0.454388188     -45.3069553      0.334644349      -146.32531      0.552726645     -64.5287502      0.826340144      27.4822781
                     0.334644348      -146.32531      0.454780341     -45.3486728      0.823264358      27.4229439      0.552593749     -64.5111811
                     0.552726645     -64.5287503      0.823264351      27.4229437      0.302579907     -35.2621693      0.610486964     -113.827023
                     0.826340144      27.4822783      0.552593749     -64.5111811      0.610486964     -113.827023      0.302361039     -35.2570428
107.58               0.453726651     -45.4792934      0.334109932     -146.639681      0.553498438     -64.7126196      0.815118292      26.9552966
                     0.334109931     -146.639681      0.454118604     -45.5212705      0.812107415      26.8983421      0.553365213     -64.6949085
                     0.553498438     -64.7126198      0.812107408      26.8983419      0.303064961     -35.3656011      0.609675451     -113.996011
                     0.815118292      26.9552968      0.553365213     -64.6949085      0.609675452     -113.996011      0.302844613     -35.3603148
107.72               0.453064281     -45.6508112      0.333581225     -146.954183      0.554265667     -64.8964473      0.804166674      26.4431868
                     0.333581224     -146.954183      0.453456022     -45.6930471      0.801218962      26.3885135      0.554132121     -64.8785941
                     0.554265667     -64.8964474      0.801218955      26.3885133      0.303549381     -35.4690892      0.608865439     -114.164968
                     0.804166673       26.443187      0.554132121     -64.8785941      0.608865439     -114.164968      0.303327552     -35.4636421
107.86               0.452401131     -45.8215116      0.333058229     -147.268809      0.555028311     -65.0802307      0.793478408       25.945372
                     0.333058228     -147.268809      0.452792646     -45.8640055      0.790592143      25.8928862      0.554894453     -65.0622352
                      0.55502831     -65.0802308      0.790592136       25.892886      0.304033162      -35.572633      0.608056933     -114.333894
                     0.793478408      25.9453722      0.554894453     -65.0622352      0.608056934     -114.333894      0.303809851     -35.5670243
108                  0.451737253     -45.9913975      0.332540942     -147.583552       0.55578635     -65.2639671      0.783046636      25.4613012
                     0.332540941     -147.583552      0.452128527     -46.0341485      0.780220128      25.4109133      0.555652188     -65.2458294
                      0.55578635     -65.2639672      0.780220122      25.4109131      0.304516298     -35.6762319       0.60724994      -114.50279
                     0.783046636      25.4613014      0.555652188     -65.2458294      0.607249941      -114.50279      0.304291503     -35.6704608
108.14               0.451072696      -46.160472      0.332029363     -147.898405      0.556539765      -65.447654      0.772864549      24.9904473
                     0.332029362     -147.898405      0.451463717     -46.2034792       0.77009614      24.9420721      0.556405308     -65.4293739
                     0.556539765     -65.4476541      0.770096133      24.9420719      0.304998782     -35.7798854      0.606444467     -114.671655
                     0.772864548      24.9904475      0.556405308      -65.429374      0.606444467     -114.671655      0.304772502      -35.773951
108.28                0.45040751     -46.3287378      0.331523489     -148.213361      0.557288538     -65.6312887      0.762925407      24.5323067
                     0.331523488     -148.213361      0.450798265     -46.3720005      0.760213473      24.4858627      0.557153793     -65.6128663
                     0.557288538     -65.6312888      0.760213467      24.4858625      0.305480608      -35.883593      0.605640519     -114.840488
                     0.762925407      24.5323069      0.557153793     -65.6128664      0.605640519     -114.840488      0.305252844     -35.8774945
108.42               0.449741745     -46.4961982      0.331023319     -148.528413      0.558032649     -65.8148687      0.753222563       24.086398
                     0.331023318     -148.528413       0.45013222     -46.5397154      0.750565517      24.0418076      0.557897626      -65.796304
                     0.558032649     -65.8148688      0.750565511      24.0418074      0.305961771     -35.9873541      0.604838103      -115.00929
                     0.753222563      24.0863982      0.557897625      -65.796304      0.604838104      -115.00929       0.30573252     -35.9810906
108.56               0.449075447      -46.662856       0.33052885     -148.843554      0.558772081     -65.9983914      0.743749474      23.6522609
                     0.330528849     -148.843554      0.449465631     -46.7066269      0.741145765        23.60945      0.558636787     -65.9796842
                     0.558772081     -65.9983915      0.741145759      23.6094499      0.306442265     -36.0911681      0.604037225     -115.178059
                     0.743749474      23.6522611      0.558636787     -65.9796843      0.604037226     -115.178059      0.306211527     -36.0847388
108.7                0.448408665     -46.8287144      0.330040079     -149.158777      0.559506816     -66.1818541      0.734499714      23.2294557
                     0.330040078     -149.158777      0.448798545     -46.8727381      0.731947831      23.1883536      0.559371259     -66.1630045
                     0.559506815     -66.1818542      0.731947825      23.1883535      0.306922083     -36.1950346      0.603237892     -115.346797
                     0.734499714      23.2294559      0.559371259     -66.1630046      0.603237892     -115.346796      0.306689858     -36.1884386
108.84               0.447741445     -46.9937765      0.329557003     -149.474075      0.560236835     -66.3652544      0.725466987      22.8175619
                     0.329557002     -149.474075      0.448131008      -47.038052      0.722965458      22.7781013      0.560101025     -66.3462623
                     0.560236835     -66.3652545      0.722965452      22.7781011      0.307401221     -36.2989529      0.602440109     -115.515501
                     0.725466987      22.8175621      0.560101025     -66.3462623      0.602440109     -115.515501      0.307167507     -36.2921894
108.98               0.447073833     -47.1580452      0.329079619      -149.78944      0.560962122     -66.5485894       0.71664513      22.4161776
                     0.329079618      -149.78944      0.447463068     -47.2025717      0.714192523       22.378294      0.560826067     -66.5294549
                     0.560962122     -66.5485896      0.714192517      22.3782939      0.307879671     -36.4029225      0.601643882     -115.684173
                      0.71664513      22.4161778      0.560826067      -66.529455      0.601643883     -115.684173      0.307644468     -36.3959906
109.12               0.446405873     -47.3215239      0.328607924     -150.104865       0.56168266     -66.7318568      0.708028125      22.0249184
                     0.328607922     -150.104865      0.446794769     -47.3663005      0.705623046      21.9885506      0.561546368     -66.7125799
                      0.56168266     -66.7318569      0.705623041      21.9885504      0.308357428     -36.5069429      0.600849218     -115.852812
                     0.708028124      22.0249186      0.561546368     -66.7125799      0.600849219     -115.852812      0.308120735     -36.4998417
109.26               0.445737611     -47.4842155      0.328141911     -150.420343      0.562398433     -66.9150539      0.699610096      21.6434171
                      0.32814191     -150.420343      0.446126155     -47.5292413      0.697251195      21.6085064      0.562261913     -66.8956344
                     0.562398433      -66.915054      0.697251189      21.6085062      0.308834487     -36.6110134      0.600056122     -116.021418
                     0.699610096      21.6434173      0.562261913     -66.8956345      0.600056123     -116.021418      0.308596303     -36.6037422
109.4                 0.44506909     -47.6461233      0.327681579     -150.735866      0.563109424      -67.098178       0.69138532      21.2713221
                     0.327681578     -150.735866      0.445457271     -47.6913973      0.689071283      21.2378126      0.562972685     -67.0786161
                     0.563109424     -67.0981781      0.689071278      21.2378125       0.30931084     -36.7151335        0.5992646     -116.189989
                      0.69138532      21.2713223      0.562972685     -67.0786161      0.599264601     -116.189989      0.309071166     -36.7076914
109.54               0.444400352     -47.8072504      0.327226921     -151.051428      0.563815618     -67.2812267      0.683348224      20.9082975
                      0.32722692     -151.051428       0.44478816     -47.8527718      0.681077778      20.8761358      0.563678668     -67.2615223
                     0.563815618     -67.2812268      0.681077773      20.8761356      0.309786483     -36.8193027      0.598474658     -116.358527
                     0.683348224      20.9082977      0.563678668     -67.2615223      0.598474659     -116.358527      0.309545317     -36.8116889
109.68               0.443731441     -47.9676001      0.326777933      -151.36702         0.564517     -67.4641972      0.675493385      20.5540217
                     0.326777931      -151.36702      0.444118863     -48.0133679      0.673265295      20.5231567      0.564379848     -67.4443505
                        0.564517     -67.4641973       0.67326529      20.5231566       0.31026141     -36.9235203      0.597686302     -116.527031
                     0.675493385      20.5540219      0.564379848     -67.4443505      0.597686302     -116.527031      0.310018752      -36.915734
109.82               0.443062396     -48.1271755      0.326334608     -151.682635      0.565213554     -67.6470871      0.667815535      20.2081871
                     0.326334607     -151.682635      0.443449424     -48.1731888      0.665628604      20.1785702      0.565076209     -67.6270979
                     0.565213554     -67.6470872      0.665628599      20.1785701      0.310735614     -37.0277859      0.596899537       -116.6955
                     0.667815535      20.2081873      0.565076209     -67.6270979      0.596899537       -116.6955      0.310491464     -37.0198261
109.96               0.442393259     -48.2859798      0.325896943     -151.998267      0.565905266     -67.8298937      0.660309555      19.8704994
                     0.325896942     -151.998267      0.442779881     -48.3322378      0.658162623      19.8420839      0.565767736     -67.8097622
                     0.565905266     -67.8298938      0.658162618      19.8420838       0.31120909     -37.1320988      0.596114369     -116.863934
                     0.660309555      19.8704995      0.565767736     -67.8097622      0.596114369     -116.863934      0.310963447     -37.1239647
110.1                0.441724071     -48.4440165       0.32546493     -152.313907      0.566592122     -68.0126144      0.652970476      19.5406766
                     0.325464929     -152.313907      0.442110277     -48.4905181      0.650862421      19.5134181      0.566454417     -67.9923406
                     0.566592121     -68.0126145      0.650862416       19.513418      0.311681832     -37.2364584      0.595330803     -117.032333
                     0.652970476      19.5406767      0.566454416     -67.9923406      0.595330804     -117.032333      0.311434696     -37.2281493
110.24               0.441054869     -48.6012885      0.325038563     -152.629547      0.567274107     -68.1952467      0.645793478      19.2184489
                     0.325038561     -152.629547       0.44144065     -48.6480329      0.643723212      19.1923049      0.567136235     -68.1748306
                     0.567274107     -68.1952468      0.643723207      19.1923048      0.312153834     -37.3408642      0.594548845     -117.200696
                     0.645793478      19.2184491      0.567136235     -68.1748307      0.594548846     -117.200696      0.311905205     -37.3323792
110.38               0.440385694     -48.7577994      0.324617835     -152.945181       0.56795121      -68.377788      0.638773887       18.903558
                     0.324617834     -152.945181      0.440771039     -48.8047855      0.636740357      18.8784879       0.56781318     -68.3572297
                     0.567951209     -68.3777881      0.636740352      18.8784877       0.31262509     -37.4453156      0.593768501     -117.369024
                     0.638773887      18.9035582       0.56781318     -68.3572297      0.593768501     -117.369024      0.312374967     -37.4366539
110.52               0.439716583     -48.9135523       0.32420274       -153.2608      0.568623415     -68.5602357      0.631907171      18.5957564
                     0.324202738       -153.2608      0.440101482     -48.9607793      0.629909358      18.5717211      0.568485236     -68.5395353
                     0.568623415     -68.5602358      0.629909354       18.571721      0.313095595     -37.5498121      0.592989775     -117.537316
                     0.631907171      18.5957565      0.568485236     -68.5395353      0.592989776     -117.537316      0.312843979     -37.5409728
110.66               0.439047572     -49.0685505      0.323793269     -153.576397      0.569290712     -68.7425873      0.625188939      18.2948067
                     0.323793268     -153.576397      0.439432017     -49.1160174      0.623225858      18.2717691      0.569152392     -68.7217448
                     0.569290711     -68.7425874      0.623225854       18.271769      0.313565343     -37.6543529      0.592212674     -117.705571
                     0.625188939      18.2948069      0.569152392     -68.7217448      0.592212674     -117.705571      0.313312233     -37.6453352
110.8                  0.4383787     -49.2227973      0.323389416     -153.891964      0.569953087     -68.9248401      0.618614939      18.0004819
                     0.323389415     -153.891964      0.438762681     -49.2705032      0.616685636      17.9784063      0.569814636     -68.9038556
                     0.569953086     -68.9248402      0.616685631      17.9784062      0.314034328     -37.7589376      0.591437201      -117.87379
                     0.618614939       18.000482      0.569814636     -68.9038557      0.591437202      -117.87379      0.313779724     -37.7497408
110.94               0.437710002     -49.3762962      0.322991173     -154.207494      0.570610528     -69.1069917       0.61218105      17.7125638
                     0.322991172     -154.207494      0.438093509       -49.42424      0.610284602      17.6914163      0.570471955     -69.0858653
                     0.570610528     -69.1069918      0.610284598      17.6914162      0.314502544     -37.8635656      0.590663363     -118.041972
                      0.61218105       17.712564      0.570471955     -69.0858653      0.590663364     -118.041972      0.314246446     -37.8541887
111.08               0.437041512     -49.5290503       0.32259853     -154.522979      0.571263024     -69.2890394      0.605883285      17.4308437
                     0.322598529     -154.522979      0.437424538     -49.5772312      0.604018798      17.4105915      0.571124338     -69.2677712
                     0.571263024     -69.2890395      0.604018794      17.4105914      0.314969985     -37.9682363      0.589891165     -118.210117
                     0.605883285      17.4308438      0.571124338     -69.2677712      0.589891166     -118.210117      0.314712393     -37.9586785
111.22               0.436373267      -49.681063       0.32221148     -154.838411      0.571910565     -69.4709808      0.599717782       17.155121
                     0.322211479     -154.838411      0.436755802       -49.72948      0.597884393      17.1357329      0.571771774     -69.4495708
                     0.571910565     -69.4709809      0.597884389      17.1357328      0.315436646      -38.072949      0.589120612     -118.378224
                     0.599717783      17.1551212      0.571771774     -69.4495708      0.589120612     -118.378224      0.315177561     -38.0632096
111.36               0.435705299     -49.8323377      0.321830014     -155.153782      0.572553138     -69.6528132      0.593680805      16.8852035
                     0.321830013     -155.153782      0.436087335     -49.8809899      0.591877678      16.8666495      0.572414252     -69.6312616
                     0.572553138     -69.6528133      0.591877674      16.8666494      0.315902521     -38.1777032      0.588351708     -118.546294
                     0.593680805      16.8852037      0.572414252     -69.6312616      0.588351708     -118.546294      0.315641943     -38.1677813
111.5                0.435037642     -49.9828777      0.321454122     -155.469085      0.573190735     -69.8345342      0.587768735      16.6209066
                     0.321454121     -155.469085      0.435419171     -50.0317641      0.585995063      16.6031581      0.573051761     -69.8128411
                     0.573190734     -69.8345343      0.585995059       16.603158      0.316367605     -38.2824983      0.587584459     -118.714325
                     0.587768735      16.6209068      0.573051761     -69.8128411      0.587584459     -118.714325      0.316105533     -38.2723931
111.64                0.43437033     -50.1326865      0.321083794     -155.784312      0.573823344     -70.0161411      0.581978074      16.3620533
                     0.321083793     -155.784312      0.434751343      -50.181806      0.580233073      16.3450826      0.573684293     -69.9943066
                     0.573823343     -70.0161412      0.580233069      16.3450826      0.316831891     -38.3873337       0.58681887     -118.882319
                     0.581978074      16.3620534      0.573684293     -69.9943066       0.58681887     -118.882319      0.316568326     -38.3770444
111.78               0.433703393     -50.2817672      0.320719022     -156.099455      0.574450956     -70.1976315      0.576305434      16.1084733
                     0.320719021     -156.099455      0.434083884      -50.331119      0.574588349      16.0922542      0.574311837     -70.1756558
                     0.574450956     -70.1976317      0.574588345      16.0922542      0.317295374     -38.4922088      0.586054945     -119.050273
                     0.576305434      16.1084735      0.574311837     -70.1756558      0.586054945     -119.050273      0.317030317     -38.4817346
111.92               0.433036865     -50.4301234      0.320359794     -156.414507      0.575073562     -70.3790029      0.570747539      15.8600034
                     0.320359793     -156.414507      0.433416824     -50.4797065      0.569057637      15.8445106      0.574934383      -70.356886
                     0.575073562      -70.379003      0.569057633      15.8445105      0.317758048      -38.597123      0.585292689     -119.218189
                     0.570747539      15.8600036      0.574934383      -70.356886      0.585292689     -119.218189      0.317491499     -38.5864631
112.06               0.432370775     -50.5777584        0.3200061     -156.729458      0.575691154     -70.5602527      0.565301217      15.6164866
                     0.320006099     -156.729458      0.432750195     -50.6275718      0.563637791      15.6016957      0.575551924     -70.5379948
                     0.575691153     -70.5602529      0.563637787      15.6016956      0.318219908     -38.7020757      0.584532107     -119.386065
                     0.565301217      15.6164867      0.575551924     -70.5379948      0.584532108     -119.386065      0.317951867     -38.6912293
112.2                0.431705154     -50.7246755       0.31965793     -157.044303      0.576303722     -70.7413785      0.559963402      15.3777719
                     0.319657929     -157.044303      0.432084029     -50.7747183      0.558325766      15.3636597      0.576164451     -70.7189797
                     0.576303722     -70.7413786      0.558325762      15.3636597      0.318680949     -38.8070662      0.583773204     -119.553902
                     0.559963402      15.3777721      0.576164451     -70.7189797      0.583773205     -119.553901      0.318411416     -38.7960326
112.34               0.431040032     -50.8708783      0.319315272     -157.359032      0.576911259     -70.9223777      0.554731124      15.1437145
                     0.319315271     -157.359032      0.431418353     -50.9211494      0.553118615      15.1302586      0.576771956     -70.8998382
                     0.576911258     -70.9223778      0.553118612      15.1302586      0.319141163     -38.9120941      0.583015984     -119.721698
                     0.554731124      15.1437147      0.576771956     -70.8998382      0.583015985     -119.721698       0.31887014     -38.9008723
112.48               0.430375438     -51.0163699      0.318978115     -157.673638      0.577513757     -71.1032478      0.549601512      14.9141749
                     0.318978114     -157.673638      0.430753199     -51.0668685      0.548013489      14.9013538      0.577374431     -71.0805677
                     0.577513756     -71.1032479      0.548013486      14.9013538      0.319600547     -39.0171586      0.582260453     -119.889455
                     0.549601512       14.914175       0.57737443     -71.0805677      0.582260453     -119.889455      0.319328034     -39.0057479
112.62               0.429711401     -51.1611539      0.318646447     -157.988113      0.578111208     -71.2839863      0.544571788      14.6890189
                     0.318646446     -157.988113      0.430088594      -51.211879      0.543007629      14.6768121      0.577971868     -71.2611659
                     0.578111208     -71.2839864      0.543007626       14.676812      0.320059093     -39.1222592      0.581506613     -120.057171
                     0.544571788      14.6890191      0.577971868     -71.2611659      0.581506613     -120.057171      0.319785091     -39.1106588
112.76               0.429047948     -51.3052337      0.318320256     -158.302449      0.578703607     -71.4645909      0.539639261      14.4681176
                     0.318320255     -158.302449      0.429424567     -51.3561842      0.538098366      14.4565051      0.578564262     -71.4416301
                     0.578703607      -71.464591      0.538098363      14.4565051      0.320516798     -39.2273952       0.58075447     -120.224847
                     0.539639261      14.4681177      0.578564262     -71.4416302      0.580754471     -120.224847      0.320241306     -39.2156044
112.9                0.428385107     -51.4486126       0.31799953     -158.616639      0.579290946     -71.6450589      0.534801331      14.2513467
                     0.317999529     -158.616639      0.428761146     -51.4997876      0.533283118      14.2403096      0.579151605     -71.6219581
                     0.579290946      -71.645059      0.533283114      14.2403096      0.320973655     -39.3325661      0.580004029     -120.392481
                     0.534801331      14.2513469      0.579151605     -71.6219581      0.580004029     -120.392481      0.320696675      -39.320584
113.04               0.427722906      -51.591294      0.317684257     -158.930674       0.57987322      -71.825388      0.530055478      14.0385867
                     0.317684255     -158.930674      0.428098358     -51.6426926      0.528559383      14.0281067      0.579733891     -71.8021473
                     0.579873219     -71.8253881       0.52855938      14.0281067      0.321429658     -39.4377712      0.579255293     -120.560074
                     0.530055478      14.0385869      0.579733891     -71.8021473      0.579255293     -120.560074      0.321151191     -39.4255971
113.18                0.42706137     -51.7332813      0.317374422     -159.244547      0.580450422     -72.0055757      0.525399266      13.8297226
                     0.317374421     -159.244547      0.427436228     -51.7849025      0.523924744      13.8197821      0.580311116     -71.9821953
                     0.580450422     -72.0055758      0.523924741       13.819782      0.321884802     -39.5430099      0.578508267     -120.727625
                     0.525399267      13.8297228      0.580311116     -71.9821953      0.578508267     -120.727625      0.321604849     -39.5306429
113.32               0.426400525      -51.874578      0.317070014      -159.55825      0.581022547     -72.1856195      0.520830336      13.6246435
                     0.317070012      -159.55825      0.426774784     -51.9264207      0.519376859      13.6152255      0.580883272     -72.1620996
                     0.581022547     -72.1856196      0.519376856      13.6152254      0.322339082     -39.6482816      0.577762955     -120.895134
                     0.520830337      13.6246437      0.580883272     -72.1620996      0.577762955     -120.895134      0.322057644      -39.635721
113.46               0.425740397     -52.0151874      0.316771018     -159.871775      0.581589591      -72.365517      0.516346405      13.4232426
                     0.316771017     -159.871775      0.426114051     -52.0672507      0.514913459      13.4143308      0.581450356     -72.3418578
                     0.581589591     -72.3655171      0.514913456      13.4143307      0.322792493     -39.7535857      0.577019361     -121.062602
                     0.516346405      13.4232427      0.581450356     -72.3418578      0.577019362     -121.062601       0.32250957     -39.7408307
113.6                0.425081011     -52.1551128      0.316477421     -160.185114      0.582151549     -72.5452658      0.511945261      13.2254168
                      0.31647742     -160.185114      0.425454054     -52.2073959      0.510532352      13.2169956      0.582012363     -72.5214675
                     0.582151548     -72.5452659      0.510532349      13.2169956      0.323245028     -39.8589215       0.57627749     -121.230026
                     0.511945261       13.225417      0.582012363     -72.5214675       0.57627749     -121.230026      0.322960621     -39.8459714
113.74                0.42442239     -52.2943578      0.316189208      -160.49826      0.582708416     -72.7248635      0.507624764      13.0310672
                     0.316189207      -160.49826      0.424794816     -52.3468596      0.506231412      13.0231214      0.582569289     -72.7009263
                     0.582708416     -72.7248636      0.506231409      13.0231214      0.323696682     -39.9642884      0.575537345     -121.397407
                     0.507624764      13.0310673      0.582569289     -72.7009263      0.575537345     -121.397407      0.323410793     -39.9511424
113.88               0.423764559     -52.4329257      0.315906366     -160.811203      0.583260189     -72.9043077      0.503382842      12.8400979
                     0.315906365     -160.811203      0.424136362     -52.4856452       0.50200858      12.8326131       0.58312113     -72.8802318
                     0.583260189     -72.9043078      0.502008578       12.832613      0.324147451     -40.0696859       0.57479893     -121.564746
                     0.503382842       12.840098       0.58312113     -72.8802318      0.574798931     -121.564746       0.32386008     -40.0563431
114.02               0.423107541     -52.5708199       0.31562888     -161.123938      0.583806865     -73.0835959      0.499217488      12.6524167
                     0.315628879     -161.123938      0.423478716     -52.6237561      0.497861866      12.6453788      0.583667882     -73.0593815
                     0.583806865      -73.083596      0.497861863      12.6453788      0.324597328     -40.1751132       0.57406225     -121.732041
                     0.499217488      12.6524168      0.583667882     -73.0593815       0.57406225     -121.732041      0.324308477      -40.161573
114.16               0.422451358     -52.7080437      0.315356735     -161.436456       0.58434844     -73.2627258      0.495126757      12.4679346
                     0.315356733     -161.436456        0.4228219     -52.7611957      0.493789337      12.4613302      0.584209543     -73.2383732
                      0.58434844     -73.2627259      0.493789334      12.4613302      0.325046308     -40.2805698      0.573327308     -121.899291
                     0.495126757      12.4679348      0.584209542     -73.2383732      0.573327308     -121.899291      0.324755978     -40.2668314
114.3                0.421796033     -52.8446006      0.315089915     -161.748748      0.584884912     -73.4416951      0.491108767      12.2865658
                     0.315089914     -161.748748      0.422165937     -52.8979675      0.489789125      12.2803819      0.584746109     -73.4172045
                     0.584884912     -73.4416952      0.489789123      12.2803818      0.325494386      -40.386055      0.572594108     -122.066498
                     0.491108767      12.2865659      0.584746109     -73.4172045      0.572594109     -122.066498      0.325202578     -40.3721176
114.44               0.421141588      -52.980494      0.314828405     -162.060808      0.585416279     -73.6205012      0.487161693      12.1082273
                     0.314828404     -162.060808      0.421510849     -53.0340747      0.485859419      12.1024513      0.585277579     -73.5958729
                     0.585416279     -73.6205013      0.485859416      12.1024513      0.325941556     -40.4915682      0.571862654     -122.233661
                     0.487161693      12.1082274      0.585277579     -73.5958729      0.571862655     -122.233661      0.325648272      -40.477431
114.58               0.420488043     -53.1157272       0.31457219     -162.372628      0.585942538      -73.799142      0.483283768       11.932839
                     0.314572188     -162.372628      0.420856657     -53.1695207      0.481998462       11.927459      0.585803951     -73.7743762
                     0.585942538     -73.7991421      0.481998459      11.9274589      0.326387814     -40.5971087       0.57113295     -122.400778
                     0.483283768      11.9328392      0.585803951     -73.7743762       0.57113295     -122.400778      0.326093055     -40.5827711
114.72               0.419835421     -53.2503035      0.314321253     -162.684199      0.586463689     -73.9776151      0.479473278      11.7603238
                     0.314321251     -162.684199      0.420203382      -53.304309      0.478204555       11.755328      0.586325223     -73.9527119
                     0.586463689     -73.9776152      0.478204552       11.755328      0.326833153      -40.702676      0.570404999     -122.567851
                     0.479473278       11.760324      0.586325223     -73.9527119      0.570404999     -122.567851      0.326536921     -40.6881371
114.86                0.41918374     -53.3842264      0.314075578     -162.995515       0.58697973      -74.155918      0.475728565       11.590607
                     0.314075576     -162.995515      0.419551044     -53.4384429      0.474476048      11.5859841      0.586841395     -74.1308779
                     0.586979729     -74.1559181      0.474476045      11.5859841      0.327277569     -40.8082694      0.569678805     -122.734878
                     0.475728565      11.5906071      0.586841394     -74.1308779      0.569678805     -122.734878      0.326979865     -40.7935285
115                  0.418533022     -53.5174993      0.313835148     -163.306567       0.58749066     -74.3340486      0.472048017      11.4236163
                     0.313835147     -163.306567      0.418899664     -53.5719257      0.470811343      11.4193557      0.587352464     -74.3088717
                     0.587490659     -74.3340487       0.47081134      11.4193556      0.327721057     -40.9138882      0.568954371     -122.901859
                     0.472048018      11.4236164      0.587352464     -74.3088717      0.568954371     -122.901859      0.327421882     -40.8989446
115.14               0.417883285     -53.6501254      0.313599947     -163.617347      0.587996479     -74.5120045      0.468430077      11.2592821
                     0.313599946     -163.617347      0.418249262     -53.7047609      0.467208891      11.2553732      0.587858432     -74.4866911
                     0.587996478     -74.5120046      0.467208889      11.2553732      0.328163611     -41.0195318      0.568231701     -123.068795
                     0.468430077      11.2592823      0.587858432     -74.4866912      0.568231702     -123.068795      0.327862967     -41.0043848
115.28               0.417234549     -53.7821082      0.313369958     -163.927849      0.588497187     -74.6897833       0.46487323      11.0975371
                     0.313369957     -163.927849      0.417599856     -53.8369518      0.463667191      11.0939698      0.588359297     -74.6643338
                     0.588497187     -74.6897834      0.463667188      11.0939698      0.328605225     -41.1251997      0.567510799     -123.235684
                      0.46487323      11.0975372      0.588359297     -74.6643338        0.5675108     -123.235684      0.328303115     -41.1098484
115.42               0.416586832     -53.9134509      0.313145163     -164.238065      0.588992784     -74.8673829       0.46137601       10.938316
                     0.313145162     -164.238065      0.416951465     -53.9685016      0.460184784      10.9350806      0.588855061     -74.8417975
                     0.588992784      -74.867383      0.460184782      10.9350806      0.329045896      -41.230891      0.566791668     -123.402526
                      0.46137601      10.9383162      0.588855061     -74.8417975      0.566791668     -123.402526       0.32874232     -41.2153348
115.56               0.415940153      -54.044157      0.312925545     -164.547987      0.589483272      -75.044801      0.457936994      10.7815559
                     0.312925544     -164.547987      0.416304108     -54.0994139      0.456760259      10.7786429      0.589345724       -75.01908
                     0.589483272     -75.0448011      0.456760256      10.7786429      0.329485617     -41.3366053      0.566074311     -123.569321
                     0.457936994       10.781556      0.589345724       -75.01908      0.566074311     -123.569321      0.329180578     -41.3208434
115.7                0.415294529     -54.1742297      0.312711086     -164.857607      0.589968651     -75.2220352      0.454554803      10.6271957
                     0.312711084     -164.857607      0.415657802     -54.2296918      0.453392243      10.6245962      0.589831287     -75.1961789
                     0.589968651     -75.2220353      0.453392241      10.6245961      0.329924384     -41.4423418      0.565358731     -123.736069
                     0.454554803      10.6271959      0.589831286     -75.1961789      0.565358732     -123.736069      0.329617883     -41.4263735
115.84               0.414649977     -54.3036724      0.312501767     -165.166917      0.590448923     -75.3990834      0.451228096      10.4751766
                     0.312501766     -165.166917      0.415012564     -54.3593388      0.450079408      10.4728816      0.590311751      -75.373092
                     0.590448923     -75.3990835      0.450079406      10.4728815      0.330362191        -41.5481      0.564644933      -123.90277
                     0.451228096      10.4751767      0.590311751      -75.373092      0.564644933      -123.90277       0.33005423     -41.5319245
115.98               0.414006514     -54.4324884      0.312297571     -165.475912      0.590924089     -75.5759434      0.447955575      10.3254413
                      0.31229757     -165.475912      0.414368413     -54.4883581      0.446820463      10.3234424      0.590787119     -75.5498172
                     0.590924089     -75.5759435       0.44682046      10.3234424      0.330799034     -41.6538791      0.563932918     -124.069422
                     0.447955576      10.3254415      0.590787119     -75.5498172      0.563932918     -124.069422      0.330489615     -41.6374958
116.12               0.413364157     -54.5606809      0.312098479     -165.784582      0.591394153     -75.7526128       0.44473598      10.1779347
                     0.312098478     -165.784582      0.413725364     -54.6167531      0.443614154      10.1762237      0.591257393     -75.7263522
                     0.591394152     -75.7526129      0.443614152      10.1762237      0.331234907     -41.7596786       0.56322269     -124.236027
                      0.44473598      10.1779349      0.591257392     -75.7263522      0.563222691     -124.236027      0.330924031     -41.7430867
116.26               0.412722923     -54.6882535      0.311904472     -166.092921      0.591859115     -75.9290895      0.441568085      10.0326033
                     0.311904471     -166.092921      0.413083433      -54.744527      0.440459267      10.0311723      0.591722574     -75.9026949
                     0.591859115     -75.9290896      0.440459265      10.0311722      0.331669805     -41.8654977      0.562514253     -124.402582
                     0.441568086      10.0326034      0.591722574     -75.9026949      0.562514253     -124.402582      0.331357476     -41.8486965
116.4                0.412082826     -54.8152092      0.311715531     -166.400921       0.59231898     -76.1053713      0.438450704      9.88939519
                      0.31171553     -166.400921      0.412442637     -54.8716832      0.437354622      9.88823644      0.592182667     -76.0788429
                      0.59231898     -76.1053714      0.437354619       9.8882364      0.332103724     -41.9713359      0.561807608     -124.569089
                     0.438450704      9.88939533      0.592182667     -76.0788429      0.561807609     -124.569089      0.331789942     -41.9543247
116.54               0.411443881     -54.9415514      0.311531637     -166.708574      0.592773751     -76.2814561      0.435382682      9.74826022
                     0.311531636     -166.708574      0.411802991      -54.998225      0.434299071      9.74736632      0.592637674     -76.2547942
                     0.592773751     -76.2814562      0.434299069      9.74736628      0.332536658     -42.0771924       0.56110276     -124.735546
                     0.435382682      9.74826036      0.592637674     -76.2547942      0.561102761     -124.735546      0.332221426     -42.0599706
116.68               0.410806105     -55.0672834       0.31135277     -167.015875      0.593223431     -76.4573416      0.432362899      9.60914975
                     0.311352769     -167.015875      0.411164509     -55.1241556      0.431291503      9.60851352      0.593087599     -76.4305466
                      0.59322343     -76.4573417      0.431291501      9.60851348      0.332968602     -42.1830667      0.560399712     -124.901954
                       0.4323629      9.60914989      0.593087599     -76.4305466      0.560399712     -124.901954      0.332651923     -42.1656335
116.82               0.410169511     -55.1924084      0.311178911     -167.322814      0.593668024     -76.6330258      0.429390268      9.47201665
                      0.31117891     -167.322814      0.410527208     -55.2494783      0.428330836      9.47163112      0.593532446     -76.6060979
                     0.593668023     -76.6330259      0.428330834      9.47163109      0.333399552     -42.2889581      0.559698465     -125.068312
                     0.429390268      9.47201678      0.593532446     -76.6060979      0.559698465     -125.068312      0.333081428     -42.2713127
116.96               0.409534114     -55.3169297      0.311010039     -167.629385      0.594107534     -76.8085064      0.426463731      9.33681521
                     0.311010038     -167.629385        0.4098911     -55.3741964      0.425416021      9.33667368      0.593972219     -76.7814461
                     0.594107534     -76.8085065      0.425416019      9.33667364      0.333829502     -42.3948659      0.558999023      -125.23462
                     0.426463731      9.33681535      0.593972219     -76.7814461      0.558999023      -125.23462      0.333509935     -42.3770077
117.1                0.408899928     -55.4408506      0.310846135     -167.935582      0.594541967     -76.9837814      0.423582262      9.20350116
                     0.310846134     -167.935582      0.409256199     -55.4983131      0.422546037      9.20359709      0.594406923      -76.956589
                     0.594541967     -76.9837815      0.422546035      9.20359705      0.334258448     -42.5007895      0.558301389     -125.400878
                     0.423582262      9.20350129      0.594406923      -76.956589      0.558301389     -125.400877       0.33393744     -42.4827178
117.24               0.408266965     -55.5641743      0.310687178     -168.241396      0.594971328     -77.1588486      0.420744863      9.07203151
                     0.310687177     -168.241396      0.408622521     -55.6218317      0.419719893      9.07235861      0.594836562     -77.1315245
                     0.594971327     -77.1588487      0.419719891      9.07235858      0.334686384     -42.6067282      0.557605565     -125.567084
                     0.420744863      9.07203165      0.594836562     -77.1315245      0.557605565     -125.567084      0.334363938     -42.5884424
117.38               0.407635239      -55.686904      0.310533148      -168.54682      0.595395621      -77.333706      0.417950564      8.94236463
                     0.310533147      -168.54682      0.407990076     -55.7447554      0.416936626      8.94291677      0.595261143     -77.3062504
                      0.59539562     -77.3337061      0.416936624      8.94291674      0.335113307     -42.7126814      0.556911554     -125.733239
                     0.417950564      8.94236476      0.595261143     -77.3062504      0.556911554     -125.733239      0.334789425     -42.6941807
117.52               0.407004764     -55.8090429      0.310384023     -168.851849      0.595814852     -77.5083515      0.415198424      8.81446006
                     0.310384022     -168.851849      0.407358879     -55.8670874      0.414195299      8.81523135      0.595680671     -77.4807649
                     0.595814852     -77.5083516      0.414195297      8.81523131      0.335539211     -42.8186484      0.556219359     -125.899343
                     0.415198424       8.8144602      0.595680671     -77.4807649      0.556219359     -125.899343      0.335213896     -42.7999321
117.66                0.40637555     -55.9305943      0.310239784     -169.156473      0.596229028      -77.682783      0.412487525      8.68827861
                     0.310239782     -169.156473      0.406728943     -55.9888309      0.411495002      8.68926329      0.596095152     -77.6550657
                     0.596229028     -77.6827831         0.411495      8.68926325      0.335964092     -42.9246286      0.555528982     -126.065395
                     0.412487525      8.68827874      0.596095152     -77.6550657      0.555528982     -126.065394      0.335637346     -42.9056961
117.8                0.405747611     -56.0515614      0.310100407     -169.460688      0.596638155     -77.8569985      0.409816977      8.56378218
                     0.310100406     -169.460688      0.406100278     -56.1099892       0.40883485       8.5649747      0.596504592     -77.8291509
                     0.596638155     -77.8569986      0.408834848      8.56497467      0.336387944     -43.0306213      0.554840426     -126.231394
                     0.409816978      8.56378231      0.596504592     -77.8291509      0.554840426     -126.231394       0.33605977     -43.0114719
117.94               0.405120958     -56.1719473      0.309965874     -169.764485      0.597042239      -78.030996      0.407185915      8.44093384
                     0.309965872     -169.764485      0.405472897     -56.2305654      0.406213981      8.44232881      0.596908998     -78.0030184
                     0.597042239     -78.0309961      0.406213979      8.44232878      0.336810763     -43.1366258      0.554153693     -126.397341
                     0.407185915      8.44093397      0.596908998     -78.0030184      0.554153693     -126.397341      0.336481164     -43.1172588
118.08               0.404495602     -56.2917553       0.30983616     -170.067858      0.597441289     -78.2047733      0.404593495      8.31969769
                     0.309836159     -170.067858      0.404846811     -56.3505628      0.403631559      8.32128989      0.597308377     -78.1766662
                     0.597441288     -78.2047734      0.403631557      8.32128986      0.337232544     -43.2426416      0.553468786     -126.563235
                     0.404593496      8.31969782      0.597308377     -78.1766662      0.553468786     -126.563235      0.336901522     -43.2230563
118.22               0.403871555     -56.4109884      0.309711246     -170.370801       0.59783531     -78.3783286      0.402038899       8.2000389
                     0.309711244     -170.370801      0.404222033     -56.4699844       0.40108677      8.20182326      0.597702736     -78.3500923
                     0.597835309     -78.3783287      0.401086768      8.20182323      0.337653283     -43.3486678      0.552785707     -126.729076
                     0.402038899      8.20003902      0.597702736     -78.3500923      0.552785707     -126.729076      0.337320842     -43.3288636
118.36               0.403248827     -56.5296499      0.309591108     -170.673305      0.598224311     -78.5516599      0.399521328       8.0819236
                     0.309591107     -170.673305      0.403598571     -56.5888335      0.398578821      8.08389522      0.598092083     -78.5232948
                      0.59822431       -78.55166      0.398578819      8.08389519      0.338072975      -43.454704      0.552104458     -126.894864
                     0.399521328      8.08192373      0.598092083     -78.5232948      0.552104459     -126.894863      0.337739117     -43.4346802
118.5                0.402627429     -56.6477429      0.309475725     -170.975366      0.598608299     -78.7247651      0.397040007      7.96531894
                     0.309475724     -170.975366      0.402976438     -56.7071132      0.396106941      7.96747303      0.598476426     -78.6962716
                     0.598608299     -78.7247652      0.396106939      7.96747301      0.338491616     -43.5607493      0.551425042     -127.060597
                     0.397040008      7.96531906      0.598476426     -78.6962716      0.551425043     -127.060597      0.338156343     -43.5405053
118.64               0.402007371     -56.7652705      0.309365075     -171.276976      0.598987284     -78.8976424      0.394594182      7.85019294
                     0.309365074     -171.276976      0.402355643     -56.8248266      0.393670381       7.8525249      0.598855774     -78.8690209
                     0.598987284     -78.8976425      0.393670379      7.85252487      0.338909201     -43.6668032      0.550747461     -127.226276
                     0.394594183      7.85019307      0.598855774     -78.8690208      0.550747462     -127.226276      0.338572516     -43.6463383
118.78               0.401388663     -56.8822359      0.309259134     -171.578128      0.599361274     -79.0702897      0.392183118      7.73651456
                     0.309259133     -171.578128      0.401736197     -56.9419769      0.391268408       7.7390199      0.599230134     -79.0415406
                     0.599361274     -79.0702898      0.391268407      7.73901987      0.339325724      -43.772865      0.550071717     -127.391901
                     0.392183118      7.73651469      0.599230134     -79.0415406      0.550071718     -127.391901      0.338987632     -43.7521786
118.92               0.400771315     -56.9986422      0.309157881     -171.878816      0.599730278     -79.2427053      0.389806099      7.62425362
                      0.30915788     -171.878816      0.401118108     -57.0585672      0.388900314      7.62692798      0.599599516     -79.2138289
                     0.599730277     -79.2427054      0.388900313      7.62692795      0.339741183      -43.878934      0.549397812     -127.557471
                       0.3898061      7.62425375      0.599599516     -79.2138289      0.549397813     -127.557471      0.339401685     -43.8580254
119.06               0.400155335     -57.1144924      0.309061293     -172.179034      0.600094304     -79.4148871       0.38746243      7.51338077
                     0.309061292     -172.179034      0.400501387     -57.1746006      0.386565406      7.51621992       0.59996393     -79.3858839
                     0.600094304     -79.4148872      0.386565404      7.51621989      0.340155572     -43.9850096      0.548725749     -127.722985
                      0.38746243       7.5133809      0.599963929     -79.3858839      0.548725749     -127.722985      0.339814672     -43.9638782
119.2                0.399540733     -57.2297897      0.308969346     -172.478775      0.600453364     -79.5868332      0.385151432      7.40386747
                     0.308969344     -172.478775      0.399886042     -57.2900801       0.38426301      7.40686731      0.600323383     -79.5577037
                     0.600453363     -79.5868333      0.384263008      7.40686728      0.340568887     -44.0910911      0.548055529     -127.888444
                     0.385151432       7.4038676      0.600323383     -79.5577037      0.548055529     -127.888444      0.340226588     -44.0697362
119.34               0.398927518     -57.3445371      0.308882017     -172.778033      0.600807465     -79.7585419      0.382872444      7.29568597
                     0.308882016     -172.778033      0.399272083     -57.4050089      0.381992469      7.29884251      0.600677888     -79.7292865
                     0.600807465      -79.758542      0.381992467      7.29884248      0.340981123     -44.1971778      0.547387154     -128.053847
                     0.382872445      7.29568609      0.600677888     -79.7292864      0.547387154     -128.053847      0.340637429     -44.1755988
119.48               0.398315697     -57.4587377      0.308799283     -173.076802       0.60115662     -79.9300113      0.380624825      7.18880927
                     0.308799282     -173.076802      0.398659517     -57.5193899      0.379753144      7.19211863      0.601027453     -79.9006303
                      0.60115662     -79.9300114      0.379753142      7.19211861      0.341392277     -44.3032691      0.546720626     -128.219194
                     0.380624825      7.18880939      0.601027453     -79.9006302      0.546720626     -128.219194       0.34104719     -44.2814654
119.62                0.39770528     -57.5723946      0.308721121     -173.375076      0.601500838     -80.1012394      0.378407947       7.0832111
                      0.30872112     -173.375076      0.398048353     -57.6332264      0.377544413      7.08666953      0.601372089     -80.0717333
                     0.601500838     -80.1012395      0.377544411      7.08666951      0.341802343     -44.4093643      0.546055947     -128.384484
                     0.378407947      7.08321122      0.601372089     -80.0717333      0.546055948     -128.384484      0.341455867     -44.3873353
119.76               0.397096273     -57.6855107      0.308647507     -173.672848       0.60184013     -80.2722246      0.376221199       6.9788659
                     0.308647506     -173.672848      0.397438599     -57.7465213      0.375365668      6.98246975      0.601711807     -80.2425938
                      0.60184013     -80.2722247      0.375365667      6.98246973      0.342211318     -44.5154627       0.54539312     -128.549717
                       0.3762212      6.97886602      0.601711806     -80.2425938       0.54539312     -128.549717      0.341863456     -44.4932077
119.9                0.396488685     -57.7980891      0.308578418     -173.970112      0.602174507     -80.4429649      0.374063988      6.87574879
                     0.308578416     -173.970112      0.396830262     -57.8592776      0.373216319      6.87949451      0.602046617     -80.4132099
                     0.602174507      -80.442965      0.373216317      6.87949448      0.342619197     -44.6215637      0.544732145     -128.714893
                     0.374063989      6.87574891      0.602046617     -80.4132099      0.544732145     -128.714893      0.342269953     -44.5990822
120.04               0.395882524     -57.9101329      0.308513828     -174.266862      0.602503981     -80.6134587      0.371935734      6.77383556
                     0.308513827     -174.266862      0.396223351     -57.9714983      0.371095789      6.77771969      0.602376532     -80.5835799
                     0.602503981     -80.6134588      0.371095787      6.77771967      0.343025975     -44.7276666      0.544073025     -128.880011
                     0.371935734      6.77383568      0.602376532     -80.5835799      0.544073025     -128.880011      0.342675353     -44.7049579
120.18               0.395277795     -58.0216449      0.308453715     -174.563093      0.602828563     -80.7837041      0.369835871      6.67310262
                     0.308453714     -174.563093      0.395617872     -58.0831865      0.369003516      6.67712181      0.602701563     -80.7537019
                     0.602828563     -80.7837042      0.369003515      6.67712179       0.34343165     -44.8337708       0.54341576     -129.045071
                     0.369835871      6.67310274      0.602701563     -80.7537019      0.543415761     -129.045071      0.343079652     -44.8108343
120.32               0.394674506     -58.1326283      0.308398055     -174.858799      0.603148265     -80.9536994      0.367763849      6.57352703
                     0.308398054     -174.858799      0.395013833     -58.1943452      0.366938954      6.57767802      0.603021721     -80.9235743
                     0.603148265     -80.9536995      0.366938952      6.57767799      0.343836216     -44.9398756      0.542760354     -129.210072
                     0.367763849      6.57352715      0.603021721     -80.9235743      0.542760355     -129.210072      0.343482846     -44.9167107
120.46               0.394072664     -58.2430859      0.308346822     -175.153973        0.6034631     -81.1234429      0.365719131      6.47508641
                     0.308346821     -175.153973      0.394411239     -58.3049773      0.364901567      6.47936602      0.603337019     -81.0931953
                     0.603463099      -81.123443      0.364901565        6.479366      0.344239669     -45.0459802      0.542106807     -129.375015
                     0.365719131      6.47508653      0.603337019     -81.0931953      0.542106808     -129.375015       0.34388493     -45.0225863
120.6                0.393472276     -58.3530208      0.308299993     -175.448611      0.603773079     -81.2929328      0.363701193      6.37775899
                     0.308299992     -175.448611      0.393810098     -58.4150858      0.362890836      6.38216415      0.603647469     -81.2625632
                     0.603773079     -81.2929329      0.362890834      6.38216412      0.344642005     -45.1520841      0.541455121     -129.539899
                     0.363701193      6.37775911      0.603647469     -81.2625632      0.541455122     -129.539899      0.344285902     -45.1284606
120.74               0.392873346     -58.4624359      0.308257543     -175.742705      0.604078216     -81.4621674      0.361709525      6.28152354
                     0.308257542     -175.742705      0.393210415     -58.5246736      0.360906252      6.28605124      0.603953085     -81.4316763
                     0.604078216     -81.4621675      0.360906251      6.28605122       0.34504322     -45.2581866      0.540805298     -129.704723
                     0.361709525      6.28152366      0.603953085     -81.4316762      0.540805299     -129.704723      0.344685757     -45.2343329
120.88               0.392275881      -58.571334      0.308219447     -176.036252      0.604378523     -81.6311451      0.359743628       6.1863594
                     0.308219446     -176.036252      0.392612197     -58.6337436      0.358947321      6.19100672      0.604253878     -81.6005329
                     0.604378523     -81.6311452       0.35894732       6.1910067      0.345443311      -45.364287      0.540157339     -129.869488
                     0.359743629      6.18635951      0.604253878     -81.6005328      0.540157339     -129.869488       0.34508449     -45.3402026
121.02               0.391679888     -58.6797183      0.308185682     -176.329245      0.604674015     -81.7998642      0.357803018       6.0922464
                      0.30818568     -176.329245       0.39201545     -58.7422989       0.35701356      6.09701051      0.604549862     -81.7691313
                     0.604674015     -81.7998643      0.357013558      6.09701049      0.345842272     -45.4703846      0.539511245     -130.034192
                     0.357803018      6.09224652      0.604549862     -81.7691313      0.539511245     -130.034192      0.345482098     -45.4460688
121.16               0.391085371     -58.7875914       0.30815622     -176.621679      0.604964704     -81.9683231      0.355887219      5.99916491
                     0.308156219     -176.621679      0.391420178     -58.8503423      0.355104496      6.00404304      0.604841051       -81.93747
                     0.604964704     -81.9683232      0.355104495      6.00404302        0.3462401     -45.5764788      0.538867018     -130.198836
                      0.35588722      5.99916503      0.604841051       -81.93747      0.538867018     -130.198836      0.345878577     -45.5519311
121.3                0.390492335     -58.8949564      0.308131039     -176.913549      0.605250604     -82.1365201       0.35399577      5.90709578
                     0.308131038     -176.913549      0.390826388     -58.9578767      0.353219671      5.91208524      0.605127459     -82.1055473
                     0.605250604     -82.1365202       0.35321967      5.91208522      0.346636791     -45.6825689      0.538224659     -130.363419
                      0.35399577      5.90709589      0.605127459     -82.1055473      0.538224659     -130.363419      0.346273922     -45.6577887
121.44               0.389900786     -59.0018161      0.308110113     -177.204848       0.60553173     -82.3044536      0.352128219      5.81602034
                     0.308110112     -177.204848      0.390234084      -59.064905      0.351358636      5.82111851      0.605409099     -82.2733615
                     0.605531729     -82.3044537      0.351358635      5.82111849      0.347032342     -45.7886542      0.537584169     -130.527941
                     0.352128219      5.81602045      0.605409099     -82.2733615       0.53758417     -130.527941      0.346668131      -45.763641
121.58               0.389310729     -59.1081734      0.308093416     -177.495573      0.605808095      -82.472122      0.350284126      5.72592038
                     0.308093415     -177.495573      0.389643271     -59.1714301      0.349520952      5.73112472      0.605685985     -82.4409112
                     0.605808095     -82.4721221      0.349520951       5.7311247      0.347426747     -45.8947341       0.53694555     -130.692401
                     0.350284126       5.7259205      0.605685985     -82.4409112      0.536945551     -130.692401      0.347061199     -45.8694873
121.72               0.388722167     -59.2140312      0.308080924     -177.785718      0.606079715     -82.6395237       0.34846306      5.63677816
                     0.308080923     -177.785718      0.389053954     -59.2774547      0.347706192      5.64208618      0.605958133     -82.6081946
                     0.606079714     -82.6395238      0.347706191      5.64208616      0.347820004     -46.0008079      0.536308803     -130.856799
                     0.348463061      5.63677828      0.605958133     -82.6081946      0.536308803     -130.856799      0.347453122     -45.9753269
121.86               0.388135106     -59.3193922      0.308072611     -178.075277      0.606346603     -82.8066573      0.346664603      5.54857635
                     0.308072609     -178.075277      0.388466138     -59.3829819      0.345913939      5.55398564      0.606225557     -82.7752104
                     0.606346603     -82.8066574      0.345913938      5.55398562      0.348212108      -46.106875      0.535673929     -131.021135
                     0.346664603      5.54857646      0.606225557     -82.7752104      0.535673929     -131.021135      0.347843897     -46.0811592
122                   0.38754955     -59.4242593      0.308068451     -178.364247      0.606608776     -82.9735211      0.344888343      5.46129805
                      0.30806845     -178.364247      0.387879826     -59.4880143      0.344143785      5.46680625      0.606488272     -82.9419569
                     0.606608776     -82.9735211      0.344143783      5.46680623      0.348603056     -46.2129346      0.535040929     -131.185408
                     0.344888344      5.46129816      0.606488272     -82.9419569      0.535040929     -131.185408       0.34823352     -46.1869835
122.14               0.386965503     -59.5286353       0.30806842     -178.652621      0.606866248     -83.1401136      0.343133882      5.37492678
                     0.308068418     -178.652621      0.387295023     -59.5925548      0.342395331      5.38053159      0.606746293     -83.1084326
                     0.606866248     -83.1401137       0.34239533      5.38053158      0.348992843     -46.3189861      0.534409804     -131.349618
                     0.343133882      5.37492689      0.606746293     -83.1084326      0.534409804     -131.349618      0.348621986     -46.2927991
122.28               0.386382968     -59.6325231      0.308072491     -178.940395      0.607119036     -83.3064333      0.341400828      5.28944644
                     0.308072489     -178.940395      0.386711733     -59.6966063       0.34066819      5.29514564      0.606999635      -83.274636
                     0.607119035     -83.3064334      0.340668189      5.29514563      0.349381467     -46.4250288      0.533780555     -131.513765
                     0.341400828      5.28944655      0.606999635      -83.274636      0.533780555     -131.513765      0.349009294     -46.3986055
122.42                0.38580195     -59.7359253      0.308080639     -179.227565      0.607367153     -83.4724788      0.339688799      5.20484134
                     0.308080638     -179.227565      0.386129959     -59.8001714      0.338961982      5.21063275      0.607248315     -83.4405656
                     0.607367153     -83.4724789       0.33896198      5.21063273      0.349768923      -46.531062      0.533153183     -131.677848
                     0.339688799      5.20484145      0.607248315     -83.4405656      0.533153184     -131.677848      0.349395438     -46.5044018
122.56               0.385222451     -59.8388448      0.308092838     -179.514125      0.607610618     -83.6382486      0.337997423      5.12109614
                     0.308092837     -179.514125      0.385549705      -59.903253      0.337276335      5.12697764      0.607492348     -83.6062201
                     0.607610618     -83.6382487      0.337276334      5.12697762      0.350155209     -46.6370852       0.53252769     -131.841867
                     0.337997423      5.12109625      0.607492348       -83.60622       0.53252769     -131.841867      0.349780415     -46.6101875
122.7                0.384644476     -59.9412843      0.308109063     -179.800071      0.607849445     -83.8037412      0.336326335      5.03819588
                     0.308109061     -179.800071      0.384970975     -60.0058538      0.335610888       5.0441654       0.60773175     -83.7715978
                     0.607849445     -83.8037413      0.335610886      5.04416539      0.350540319     -46.7430976      0.531904075     -132.005821
                     0.336326335      5.03819599       0.60773175     -83.7715978      0.531904075     -132.005821      0.350164221     -46.7159619
122.84               0.384068026     -60.0432466      0.308129287      179.914601      0.608083652     -83.9689551       0.33467518      4.95612594
                     0.308129286      179.914601       0.38439377     -60.1079766      0.333965286      4.96218148      0.607966538     -83.9366975
                     0.608083651     -83.9689552      0.333965285      4.96218146      0.350924251     -46.8490985       0.53128234     -132.169711
                      0.33467518      4.95612605      0.607966538     -83.9366974      0.531282341     -132.169711      0.350546854     -46.8217244
122.98               0.383493105     -60.1447344      0.308153485      179.629896      0.608313254     -84.1338891      0.333043609      4.87487206
                     0.308153483      179.629896      0.383818095     -60.2096241      0.332339183      4.88101164      0.608196729     -84.1015176
                     0.608313254     -84.1338892      0.332339182      4.88101162      0.351307001     -46.9550873      0.530662486     -132.333535
                     0.333043609      4.87487217      0.608196729     -84.1015176      0.530662486     -132.333535      0.350928309     -46.9274742
123.12               0.382919716     -60.2457504       0.30818163      179.345819      0.608538269     -84.2985417      0.331431283       4.7944203
                     0.308181629      179.345819      0.383243952     -60.3107991      0.330732242        4.800642      0.608422338     -84.2660568
                     0.608538269     -84.2985418      0.330732241      4.80064199      0.351688565     -47.0610633      0.530044513     -132.497294
                     0.331431283      4.79442041      0.608422338     -84.2660568      0.530044513     -132.497294      0.351308584     -47.0332107
123.26               0.382347862     -60.3462973      0.308213697      179.062373      0.608758714     -84.4629115      0.329837869      4.71475704
                     0.308213696      179.062373      0.382671344     -60.4115041      0.329144132        4.721059      0.608643383     -84.4303138
                     0.608758714     -84.4629116      0.329144131      4.72105899      0.352068941     -47.1670259      0.529428422     -132.660986
                     0.329837869      4.71475715      0.608643383     -84.4303138      0.529428422     -132.660986      0.351687674     -47.1389332
123.4                0.381777544     -60.4463777       0.30824966      178.779563      0.608974606     -84.6269972      0.328263042      4.63586898
                     0.308249659      178.779563      0.382100272      -60.511742      0.327574529      4.64224938      0.608859882     -84.5942872
                     0.608974606     -84.6269973      0.327574528      4.64224937      0.352448124     -47.2729744      0.528814214     -132.824612
                     0.328263043      4.63586909      0.608859882     -84.5942872      0.528814214     -132.824612      0.352065576     -47.2446411
123.54               0.381208765     -60.5459945      0.308289492      178.497393      0.609185962     -84.7907973      0.326706486      4.55774313
                     0.308289491      178.497393      0.381530741     -60.6115154      0.326023119      4.56420019      0.609071851     -84.7579756
                     0.609185962     -84.7907974      0.326023118      4.56420018      0.352826111      -47.378908      0.528201889     -132.988172
                     0.326706486      4.55774324      0.609071851     -84.7579755      0.528201889     -132.988172      0.352442287     -47.3503338
123.68               0.380641527     -60.6451502      0.308333168      178.215868      0.609392801     -84.9543107      0.325167889      4.48036678
                     0.308333166      178.215868       0.38096275     -60.7108269      0.324489591      4.48689877      0.609279308     -84.9213777
                       0.6093928     -84.9543108       0.32448959      4.48689876      0.353202899     -47.4848263      0.527591448     -133.151664
                     0.325167889      4.48036688      0.609279308     -84.9213777      0.527591448     -133.151664      0.352817803     -47.4560105
123.82               0.380075833     -60.7438474       0.30838066       177.93499      0.609595139      -85.117536      0.323646948      4.40372752
                     0.308380659       177.93499      0.380396304     -60.8096793      0.322973644      4.41033276      0.609482271     -85.0844922
                     0.609595139     -85.1175361      0.322973643      4.41033274      0.353578485     -47.5907284      0.526982892     -133.315089
                     0.323646949      4.40372763      0.609482271     -85.0844922      0.526982892     -133.315089      0.353192122     -47.5616705
123.96               0.379511683     -60.8420889      0.308431944      177.654765      0.609792995      -85.280472      0.322143367      4.32781322
                     0.308431943      177.654765      0.379831403     -60.9080751      0.321474983      4.33449005      0.609680758     -85.2473179
                     0.609792995     -85.2804721      0.321474982      4.33449003      0.353952865     -47.6966137       0.52637622     -133.478446
                     0.322143367      4.32781333      0.609680758     -85.2473179      0.526376221     -133.478446       0.35356524     -47.6673134
124.1                0.378949079     -60.9398771      0.308486992      177.375196      0.609986388     -85.4431172      0.320656853      4.25261202
                     0.308486991      177.375196      0.379268049     -61.0060169      0.319993319      4.25935883      0.609874787     -85.4098535
                     0.609986387     -85.4431173      0.319993317      4.25935881      0.354326036     -47.8024816      0.525771434     -133.641735
                     0.320656854      4.25261212      0.609874787     -85.4098534      0.525771435     -133.641735      0.353937154     -47.7729383
124.24               0.378388024     -61.0372148      0.308545778      177.096286      0.610175334     -85.6054706      0.319187125      4.17811231
                     0.308545777      177.096286      0.378706243     -61.1035074      0.318528368      4.18492754      0.610064376     -85.5720977
                     0.610175334     -85.6054707      0.318528367      4.18492752      0.354697994     -47.9083314      0.525168534     -133.804955
                     0.319187125      4.17811242      0.610064376     -85.5720976      0.525168535     -133.804955       0.35430786     -47.8785446
124.38               0.377828517     -61.1341045      0.308608277      176.818039      0.610359855     -85.7675309      0.317733903      4.10430278
                     0.308608276      176.818039      0.378145987     -61.2005492      0.317079855      4.11118488      0.610249544     -85.7340493
                     0.610359854      -85.767531      0.317079854      4.11118486      0.355068737     -48.0141624       0.52456752     -133.968106
                     0.317733903      4.10430288      0.610249544     -85.7340493      0.524567521     -133.968106      0.354677356     -47.9841316
124.52               0.377270562     -61.2305487      0.308674461       176.54046      0.610539966     -85.9292969      0.316296915      4.03117231
                      0.30867446       176.54046      0.377587283     -61.2971448      0.315647509      4.03811979      0.610430309     -85.8957071
                     0.610539966      -85.929297      0.315647508      4.03811978      0.355438262     -48.1199739      0.523968393     -134.131188
                     0.316296916      4.03117242      0.610430309     -85.8957071      0.523968394     -134.131188      0.355045638     -48.0896988
124.66               0.376714157     -61.3265501      0.308744305      176.263551      0.610715689     -86.0907673      0.314875896      3.95871007
                     0.308744304      176.263551      0.377030131     -61.3932968      0.314231066      3.96572147      0.610606691     -86.0570699
                     0.610715689     -86.0907674      0.314231064      3.96572146      0.355806564     -48.2257654      0.523371153     -134.294199
                     0.314875897      3.95871017      0.610606691     -86.0570699      0.523371153     -134.294199      0.355412704     -48.1952454
124.8                0.376159305     -61.4221112      0.308817781      175.987316      0.610887042      -86.251941      0.313470586      3.88690544
                      0.30881778      175.987316      0.376474532     -61.4890078      0.312830265      3.89397934      0.610778708     -86.2181366
                     0.610887041     -86.2519411      0.312830264      3.89397932      0.356173642     -48.3315361        0.5227758     -134.457141
                     0.313470586      3.88690555      0.610778708     -86.2181366        0.5227758     -134.457141       0.35577855     -48.3007708
124.94               0.375606007     -61.5172345      0.308894865      175.711758      0.611054043      -86.412817      0.312080729      3.81574805
                     0.308894863      175.711758      0.375920487     -61.5842803      0.311444854      3.82288305       0.61094638      -86.378906
                     0.611054043      -86.412817      0.311444853      3.82288304      0.356539492     -48.4372853      0.522182334     -134.620013
                     0.312080729      3.81574816       0.61094638     -86.3789059      0.522182334     -134.620012      0.356143173     -48.4062743
125.08               0.375054262     -61.6119226      0.308975528      175.436881      0.611216713     -86.5733939      0.310706075      3.74522774
                     0.308975527      175.436881      0.375367997     -61.6791167      0.310074585      3.75242248      0.611109725     -86.5393769
                     0.611216713      -86.573394      0.310074584      3.75242247      0.356904111     -48.5430125      0.521590755     -134.782813
                     0.310706076      3.74522785      0.611109725     -86.5393769      0.521590756     -134.782813       0.35650657     -48.5117552
125.22               0.374504072     -61.7061779      0.309059746      175.162687      0.611375071     -86.7336707      0.309346382      3.67533458
                     0.309059745      175.162687      0.374817063     -61.7735197      0.308719214      3.68258773      0.611268764     -86.6995482
                     0.611375071     -86.7336708      0.308719213      3.68258771      0.357267497     -48.6487169      0.521001065     -134.945542
                     0.309346382      3.67533468      0.611268764     -86.6995482      0.521001065     -134.945542      0.356868739      -48.617213
125.36               0.373955436     -61.8000029      0.309147491      174.889181      0.611529137     -86.8936463      0.308001409      3.60605882
                      0.30914749      174.889181      0.374267684     -61.8674917      0.307378504      3.61336909      0.611423516     -86.8594189
                     0.611529137     -86.8936464      0.307378503      3.61336908      0.357629645     -48.7543979      0.520413262     -135.108199
                     0.308001409      3.60605893      0.611423516     -86.8594189      0.520413263     -135.108199      0.357229676     -48.7226469
125.5                0.373408356     -61.8934001      0.309238737      174.616365      0.611678931     -87.0533197      0.306670922      3.53739097
                     0.309238736      174.616365      0.373719861     -61.9610352      0.306052221      3.54475708         0.611574     -87.0189879
                      0.61167893     -87.0533198       0.30605222      3.54475707      0.357990554     -48.8600549      0.519827347     -135.270784
                     0.306670922      3.53739108         0.611574     -87.0189879      0.519827348     -135.270784      0.357589379     -48.8280564
125.64               0.372862831      -61.986372      0.309333458      174.344241      0.611824472     -87.2126897      0.305354693       3.4693217
                     0.309333457      174.344241      0.373173595     -62.0541526      0.304740138      3.47674241      0.611720238     -87.1782541
                     0.611824471     -87.2126898      0.304740137       3.4767424      0.358350221     -48.9656871       0.51924332     -135.433297
                     0.305354693       3.4693218      0.611720238     -87.1782541      0.519243321     -135.433297      0.357947845     -48.9334406
125.78               0.372318861      -62.078921      0.309431627      174.072814       0.61196578     -87.3717554      0.304052497      3.40184188
                     0.309431626      174.072814      0.372628885     -62.1468465      0.303442031      3.40931599      0.611862247     -87.3372164
                      0.61196578     -87.3717554       0.30344203      3.40931598      0.358708642     -49.0712939      0.518661181     -135.595737
                     0.304052497      3.40184198      0.611862247     -87.3372164      0.518661182     -135.595737       0.35830507     -49.0387991
125.92               0.371776447     -62.1710496      0.309533219      173.802085      0.612102877     -87.5305156      0.302764113      3.33494258
                     0.309533218      173.802085      0.372085731     -62.2391192      0.302157681      3.34246891       0.61200005     -87.4958739
                     0.612102877     -87.5305157       0.30215768       3.3424689      0.359065815     -49.1768747       0.51808093     -135.758104
                     0.302764114      3.33494268       0.61200005     -87.4958738       0.51808093     -135.758104      0.358661054     -49.1441311
126.06               0.371235587     -62.2627601      0.309638206      173.532058      0.612235782     -87.6889694      0.301489327      3.26861506
                     0.309638205      173.532058      0.371544134     -62.3309732      0.300886875      3.27619246      0.612133666     -87.6542254
                     0.612235782     -87.6889695      0.300886874      3.27619244      0.359421737     -49.2824288      0.517502566     -135.920397
                     0.301489328      3.26861517      0.612133666     -87.6542254      0.517502567     -135.920397      0.359015792      -49.249436
126.2                0.370696283     -62.3540551      0.309746563      173.262736      0.612364516     -87.8471158      0.300227928      3.20285076
                     0.309746561      173.262736      0.371004092     -62.4224108      0.299629401      3.21047808      0.612263116     -87.8122701
                     0.612364516     -87.8471158        0.2996294      3.21047807      0.359776406     -49.3879555       0.51692609     -136.082616
                     0.300227929      3.20285086      0.612263116     -87.8122701       0.51692609     -136.082616      0.359369282     -49.3547131
126.34               0.370158533     -62.4449368      0.309858263       172.99412        0.6124891     -88.0049538      0.298979709      3.13764128
                     0.309858261       172.99412      0.370465606     -62.5134346      0.298385056      3.14531743       0.61238842      -87.970007
                     0.612489099     -88.0049538      0.298385054      3.14531742      0.360129819     -49.4934543      0.516351501     -136.244761
                     0.298979709      3.13764138       0.61238842      -87.970007      0.516351502     -136.244761      0.359721521     -49.4599619
126.48               0.369622337     -62.5354076      0.309973279      172.726213      0.612609554     -88.1624824      0.297744467      3.07297841
                     0.309973278      172.726213      0.369928675     -62.6040468      0.297153635       3.0807023        0.6125096     -88.1274351
                     0.612609553     -88.1624825      0.297153634      3.08070229      0.360481973     -49.5989243        0.5157788     -136.406831
                     0.297744467      3.07297851        0.6125096     -88.1274351        0.5157788     -136.406831      0.360072507     -49.5651815
126.62               0.369087694       -62.62547      0.310091586      172.459019      0.612725899     -88.3197008      0.296522004      3.00885409
                     0.310091585      172.459019      0.369393299     -62.6942499      0.295934944      3.01662468      0.612626675     -88.2845535
                     0.612725899     -88.3197009      0.295934943      3.01662467      0.360832866      -49.704365      0.515207985     -136.568825
                     0.296522004      3.00885419      0.612626675     -88.2845534      0.515207986     -136.568825      0.360422238     -49.6703715
126.76               0.368554604     -62.7151263      0.310213158      172.192539      0.612838157      -88.476608      0.295312125      2.94526044
                     0.310213157      172.192538      0.368859476     -62.7840461      0.294728787      2.95307669      0.612739667     -88.4413612
                     0.612838157     -88.4766081      0.294728786      2.95307668      0.361182495     -49.8097758      0.514639058     -136.730744
                     0.295312126      2.94526054      0.612739667     -88.4413611      0.514639058     -136.730744       0.36077071     -49.7755311
126.9                0.368023065     -62.8043787      0.310337968      171.926775      0.612946348     -88.6332031      0.294114641      2.88218974
                     0.310337967      171.926775      0.368327207     -62.8734379      0.293534975      2.89005064      0.612848597     -88.5978573
                     0.612946348     -88.6332032      0.293534974      2.89005063      0.361530857      -49.915156      0.514072016     -136.892587
                     0.294114641      2.88218984      0.612848597     -88.5978573      0.514072017     -136.892587      0.361117922     -49.8806597
127.04               0.367493078     -62.8932297       0.31046599       171.66173      0.613050494     -88.7894852      0.292929363       2.8196344
                     0.310465989       171.66173      0.367796489     -62.9624275      0.292353323      2.82753897      0.612953486     -88.7540411
                     0.613050494     -88.7894853      0.292353322      2.82753895      0.361877951     -50.0205048      0.513506861     -137.054354
                     0.292929363       2.8196345      0.612953486      -88.754041      0.513506861     -137.054354       0.36146387     -49.9857566
127.18                0.36696464     -62.9816816      0.310597198      171.397406      0.613150616     -88.9454535      0.291756109      2.75758701
                     0.310597197      171.397406      0.367267323     -63.0510173      0.291183647      2.76553428      0.613054355     -88.9099115
                     0.613150615     -88.9454535      0.291183646      2.76553427      0.362223773     -50.1258218      0.512943591     -137.216044
                      0.29175611      2.75758711      0.613054355     -88.9099115      0.512943591     -137.216044      0.361808553     -50.0908213
127.32               0.366437751     -63.0697366      0.310731566      171.133805      0.613246735      -89.101107        0.2905947       2.6960403
                     0.310731565      171.133805      0.366739707     -63.1392096       0.29002577      2.70402932      0.613151226     -89.0654678
                     0.613246735     -89.1011071      0.290025769      2.70402931      0.362568322     -50.2311062      0.512382206     -137.377657
                       0.2905947       2.6960404      0.613151226     -89.0654678      0.512382207     -137.377657      0.362151968      -50.195853
127.46                0.36591241      -63.157397      0.310869068      170.870929      0.613338874     -89.2564451      0.289444958      2.63498713
                     0.310869066      170.870929       0.36621364     -63.2270067      0.288879515      2.64301698       0.61324412     -89.2207092
                     0.613338873     -89.2564452      0.288879514      2.64301697      0.362911594     -50.3363574      0.511822706     -137.539192
                     0.289444959      2.63498723       0.61324412     -89.2207091      0.511822707     -137.539192      0.362494114     -50.3008512
127.6                0.365388615     -63.2446651      0.311009677       170.60878      0.613427053     -89.4114668      0.288306713      2.57442051
                     0.311009676       170.60878       0.36568912     -63.3144108      0.287744712      2.58249029       0.61333306     -89.3756347
                     0.613427053     -89.4114669      0.287744711      2.58249028      0.363253589     -50.4415747      0.511265091     -137.700649
                     0.288306713      2.57442061       0.61333306     -89.3756347      0.511265091     -137.700649      0.362834986     -50.4058151
127.74               0.364866365     -63.3315432      0.311153369      170.347361      0.613511295     -89.5661714      0.287179794      2.51433359
                     0.311153368      170.347361      0.365166147     -63.4014242      0.286621192      2.52244241      0.613418065     -89.5302437
                     0.613511294     -89.5661715      0.286621191       2.5224424      0.363594303     -50.5467575      0.510709358     -137.862028
                     0.287179794      2.51433369      0.613418065     -89.5302437      0.510709359     -137.862028      0.363174584     -50.5107442
127.88               0.364345659     -63.4180335      0.311300117      170.086672       0.61359162      -89.720558      0.286064035      2.45471964
                     0.311300115      170.086672      0.364644719     -63.4880492      0.285508789      2.46286665      0.613499159     -89.6845353
                      0.61359162     -89.7205581      0.285508788      2.46286664      0.363933734     -50.6519051       0.51015551     -138.023328
                     0.286064035      2.45471974      0.613499159     -89.6845353       0.51015551     -138.023328      0.363512906     -50.6156378
128.02               0.363826494     -63.5041383      0.311449894      169.826715      0.613668053      -89.874626      0.284959273      2.39557209
                     0.311449893      169.826715      0.364124835      -63.574288      0.284407341      2.40375643      0.613576363     -89.8385088
                     0.613668052     -89.8746261      0.284407341      2.40375642       0.36427188      -50.757017      0.509603543     -138.184549
                     0.284959274      2.39557219      0.613576363     -89.8385088      0.509603544     -138.184549      0.363849948     -50.7204952
128.16               0.363308871     -63.5898596      0.311602677      169.567493      0.613740613     -90.0283746       0.28386535      2.33688446
                     0.311602676      169.567493      0.363606492     -63.6601427      0.283316691       2.3451053      0.613649699     -89.9921635
                     0.613740613     -90.0283747       0.28331669      2.34510529       0.36460874     -50.8620924      0.509053459      -138.34569
                      0.28386535      2.33688456      0.613649699     -89.9921635      0.509053459      -138.34569      0.364185709     -50.8253159
128.3                0.362792785     -63.6751999      0.311758438      169.309006      0.613809323     -90.1818031      0.282782108      2.27865042
                     0.311758437      169.309006      0.363089689     -63.7456157       0.28223668      2.28690696      0.613719189     -90.1454986
                     0.613809323     -90.1818032      0.282236679      2.28690695      0.364944309     -50.9671307      0.508505255     -138.506751
                     0.282782108      2.27865051      0.613719189     -90.1454985      0.508505256     -138.506751      0.364520188     -50.9300992
128.44               0.362278237     -63.7601612      0.311917152      169.051257      0.613874206     -90.3349107      0.281709393      2.22086374
                     0.311917151      169.051257      0.362574425     -63.8307091      0.281167157      2.22915518      0.613784855     -90.2985133
                     0.613874206     -90.3349107      0.281167157      2.22915517      0.365278588     -51.0721314      0.507958932     -138.667732
                     0.281709393      2.22086384      0.613784855     -90.2985133      0.507958933     -138.667732      0.364853381     -51.0348444
128.58               0.361765224     -63.8447457      0.312078794      168.794247      0.613935284     -90.4876967      0.280647055      2.16351833
                     0.312078793      168.794247      0.362060698     -63.9154251      0.280107972       2.1718439      0.613846719     -90.4512071
                     0.613935284     -90.4876968      0.280107971      2.17184389      0.365611574     -51.1770936      0.507414489     -138.828632
                     0.280647056      2.16351843      0.613846719     -90.4512071      0.507414489     -138.828632      0.365185286      -51.139551
128.72               0.361253744     -63.9289556      0.312243338      168.537976      0.613992579     -90.6401605      0.279594946       2.1066082
                     0.312243337      168.537976      0.361548505     -63.9997659      0.279058977      2.11496714      0.613904804     -90.6035793
                     0.613992578     -90.6401606      0.279058976      2.11496713      0.365943264     -51.2820169      0.506871925     -138.989451
                     0.279594946       2.1066083      0.613904804     -90.6035792      0.506871925     -138.989451      0.365515903     -51.2442182
128.86               0.360743796     -64.0127931      0.312410758      168.282448      0.614046112     -90.7923015       0.27855292      2.05012749
                     0.312410757      168.282448      0.361037845     -64.0837335      0.278020028      2.05851904      0.613959132     -90.7556291
                     0.614046112     -90.7923016      0.278020027      2.05851903      0.366273657     -51.3869006      0.506331239     -139.150189
                     0.278552921      2.05012759      0.613959132      -90.755629      0.506331239     -139.150189      0.365845229     -51.3488455
129                  0.360235376     -64.0962602      0.312581029      168.027662      0.614095908      -90.944119      0.277520836      1.99407042
                     0.312581028      168.027662      0.360528716     -64.1673303      0.276990982      2.00249387      0.614009724     -90.9073559
                     0.614095908      -90.944119      0.276990981      2.00249386       0.36660275      -51.491744       0.50579243     -139.310844
                     0.277520836      1.99407052      0.614009724     -90.9073559       0.50579243     -139.310844      0.366173262     -51.4534323
129.14               0.359728484     -64.1793592      0.312754127       167.77362      0.614141987     -91.0956123      0.276498553      1.93843135
                     0.312754125       167.77362      0.360021116     -64.2505582      0.275971701      1.94688597      0.614056604     -91.0587592
                     0.614141987     -91.0956123        0.2759717      1.94688596      0.366930543     -51.5965465      0.505255497     -139.471417
                     0.276498553      1.93843144      0.614056604     -91.0587592      0.505255498     -139.471417           0.3665     -51.5579779
129.28               0.359223117      -64.262092      0.312930024      167.520323      0.614184374     -91.2467808      0.275485933      1.88320471
                     0.312930023      167.520323      0.359515042     -64.3334194      0.274962048      1.89168982      0.614099794     -91.2098383
                     0.614184373     -91.2467809      0.274962047      1.89168981      0.367257033     -51.7013074       0.50472044     -139.631907
                     0.275485933      1.88320481      0.614099794     -91.2098383      0.504720441     -139.631907      0.366825441     -51.6624816
129.42               0.358719272     -64.3444609      0.313108697      167.267772      0.614223089      -91.397624      0.274482843      1.82838508
                     0.313108696      167.267772      0.359010492     -64.4159161      0.273961889      1.83689998      0.614139317     -91.3605926
                     0.614223089     -91.3976241      0.273961888      1.83689997      0.367582218     -51.8060263      0.504187258     -139.792314
                     0.274482843      1.82838517      0.614139317     -91.3605926      0.504187258     -139.792314      0.367149585     -51.7669429
129.56               0.358216948     -64.4264679      0.313290121      167.015969      0.614258157     -91.5481413       0.27348915      1.77396709
                     0.313290119      167.015969      0.358507464     -64.4980502      0.272971092      1.78251112      0.614175194     -91.5110216
                     0.614258156     -91.5481414      0.272971091      1.78251111      0.367906097     -51.9107023      0.503655949     -139.952638
                      0.27348915      1.77396718      0.614175194     -91.5110215      0.503655949     -139.952638      0.367472428     -51.8713612
129.7                0.357716141     -64.5081151      0.313474269      166.764914      0.614289599     -91.6983322      0.272504724       1.7199455
                     0.313474268      166.764914      0.358005956     -64.5798239      0.271989527        1.728518      0.614207449     -91.6611246
                     0.614289598     -91.6983322      0.271989527      1.72851799      0.368228668     -52.0153349      0.503126512     -140.112877
                     0.272504724      1.71994559      0.614207449     -91.6611246      0.503126513     -140.112877       0.36779397     -51.9757357
129.84                0.35721685     -64.5894046      0.313661118      166.514607      0.614317438      -91.848196      0.271529437      1.66631515
                     0.313661117      166.514607      0.357505964     -64.6612393      0.271017069      1.67491547      0.614236105     -91.8109012
                     0.614317438     -91.8481961      0.271017068      1.67491547      0.368549929     -52.1199235      0.502598947     -140.273032
                     0.271529437      1.66631525      0.614236105     -91.8109012      0.502598948     -140.273032      0.368114208      -52.080066
129.98               0.356719072     -64.6703383      0.313850643      166.265051      0.614341697     -91.9977322      0.270563165      1.61307098
                     0.313850641      166.265051      0.357007488     -64.7422984      0.270053592      1.62169851      0.614261183     -91.9603508
                     0.614341697     -91.9977323      0.270053591       1.6216985      0.368869879     -52.2244675      0.502073253     -140.433102
                     0.270563165      1.61307108      0.614261183     -91.9603508      0.502073253     -140.433102      0.368433141     -52.1843513
130.12               0.356222805     -64.7509184      0.314042818      166.016245      0.614362399     -92.1469405      0.269605784      1.56020803
                     0.314042816      166.016245      0.356510523     -64.8230032      0.269098974      1.56886213      0.614282707     -92.1094729
                     0.614362399     -92.1469405      0.269098973      1.56886212      0.369188515     -52.3289661      0.501549427     -140.593087
                     0.269605784      1.56020813      0.614282707     -92.1094729      0.501549428     -140.593087      0.368750768     -52.2885911
130.26               0.355728045     -64.8311468      0.314237619      165.768191      0.614379567     -92.2958201      0.268657173      1.50772141
                     0.314237617      165.768191      0.356015068     -64.9033557      0.268153094      1.51640148        0.6143007      -92.258267
                     0.614379567     -92.2958202      0.268153093      1.51640148      0.369505838     -52.4334189       0.50102747     -140.752986
                     0.268657173       1.5077215        0.6143007      -92.258267      0.501027471     -140.752986      0.369067087     -52.3927847
130.4                 0.35523479     -64.9110256      0.314435021      165.520888      0.614393224     -92.4443708      0.267717215      1.45560633
                      0.31443502      165.520888       0.35552112     -64.9833581      0.267215835      1.46431178      0.614315184     -92.4067327
                     0.614393224     -92.4443709      0.267215834      1.46431177      0.369821844     -52.5378251       0.50050738     -140.912799
                     0.267717215      1.45560642      0.614315184     -92.4067326       0.50050738     -140.912799      0.369382097     -52.4969315
130.54               0.354743038     -64.9905568         0.314635      165.274338      0.614403392      -92.592592      0.266785792      1.40385807
                     0.314634999      165.274338      0.355028676     -65.0630123       0.26628708      1.41258833      0.614326182     -92.5548694
                     0.614403392     -92.5925921      0.266287079      1.41258832      0.370136533     -52.6421842      0.499989155     -141.072526
                     0.266785792      1.40385817      0.614326182     -92.5548694      0.499989156     -141.072526      0.369695795      -52.601031
130.68               0.354252785     -65.0697423      0.314837532      165.028542      0.614410094     -92.7404832       0.26586279      1.35247202
                     0.314837531      165.028541      0.354537734     -65.1423202      0.265366716      1.36122651      0.614333717     -92.7026768
                     0.614410094     -92.7404833      0.265366715      1.36122651      0.370449902     -52.7464955      0.499472795     -141.232165
                      0.26586279      1.35247212      0.614333717     -92.7026767      0.499472796     -141.232165      0.370008181     -52.7050825
130.82                0.35376403     -65.1485842      0.315042592      164.783498      0.614413354     -92.8880441      0.264948097      1.30144364
                     0.315042591      164.783498       0.35404829     -65.2212839       0.26445463       1.3102218      0.614337812     -92.8501543
                     0.614413354     -92.8880442       0.26445463      1.31022179      0.370761952     -52.8507585      0.498958299     -141.391718
                     0.264948097      1.30144373      0.614337812     -92.8501543      0.498958299     -141.391718      0.370319254     -52.8090853
130.96               0.353276768     -65.2270844      0.315250156      164.539209      0.614413194     -93.0352742      0.264041602      1.25076845
                     0.315250154      164.539209      0.353560341     -65.2999053      0.263550714      1.25956974       0.61433849     -92.9973017
                     0.614413194     -93.0352743      0.263550713      1.25956973       0.37107268     -52.9549724      0.498445664     -141.551182
                     0.264041602      1.25076854       0.61433849     -92.9973016      0.498445664     -141.551182      0.370629012     -52.9130389
131.1                0.352790997     -65.3052448      0.315460199      164.295674      0.614409638     -93.1821731      0.263143197      1.20044207
                     0.315460198      164.295673      0.353073886     -65.3781863      0.262654858      1.20926595      0.614335773     -93.1441184
                     0.614409637     -93.1821732      0.262654857      1.20926595      0.371382085     -53.0591368       0.49793489     -141.710559
                     0.263143197      1.20044216      0.614335773     -93.1441183       0.49793489     -141.710559      0.370937453     -53.0169427
131.24               0.352306715     -65.3830674      0.315672698      164.052893      0.614402707     -93.3287405      0.262252774      1.15046019
                     0.315672697      164.052893       0.35258892      -65.456129      0.261766956      1.15930614      0.614329686     -93.2906041
                     0.614402707     -93.3287406      0.261766955      1.15930614      0.371690165     -53.1632509      0.497425975     -141.869847
                     0.262252775      1.15046028      0.614329686      -93.290604      0.497425975     -141.869847      0.371244577     -53.1207961
131.38               0.351823917     -65.4605541      0.315887629      163.810867      0.614392426     -93.4749759      0.261370231      1.10081858
                     0.315887628      163.810867      0.352105441     -65.5337353      0.260886905      1.10968608      0.614320249     -93.4367584
                     0.614392426      -93.474976      0.260886904      1.10968608      0.371996921     -53.2673143      0.496918918     -142.029046
                     0.261370231      1.10081867      0.614320249     -93.4367584      0.496918918     -142.029046      0.371550382     -53.2245985
131.52               0.351342602     -65.5377068      0.316104968      163.569596      0.614378818     -93.6208791      0.260495462      1.05151307
                     0.316104967      163.569596      0.351623446      -65.611007      0.260014601      1.06040162      0.614307488      -93.582581
                     0.614378818     -93.6208792        0.2600146      1.06040162      0.372302349     -53.3713262      0.496413717     -142.188156
                     0.260495462      1.05151316      0.614307488      -93.582581      0.496413717     -142.188156      0.371854867     -53.3283492
131.66               0.350862765     -65.6145275      0.316324692      163.329081      0.614361905     -93.7664497      0.259628367      1.00253957
                      0.31632469      163.329081      0.351142931     -65.6879461      0.259149944      1.01144868      0.614291424     -93.7280716
                     0.614361904     -93.7664497      0.259149943      1.01144867       0.37260645     -53.4752861      0.495910371     -142.347175
                     0.259628368      1.00253966      0.614291424     -93.7280715      0.495910372     -142.347175      0.372158031     -53.4320477
131.8                0.350384404     -65.6910179      0.316546775       163.08932       0.61434171     -93.9116873      0.258768847     0.953894066
                     0.316546774       163.08932      0.350663894     -65.7645544      0.258292835     0.962823245       0.61427208     -93.8732297
                      0.61434171     -93.9116873      0.258292834     0.962823237      0.372909222     -53.5791933      0.495408879     -142.506105
                     0.258768847     0.953894158       0.61427208     -93.8732297      0.495408879     -142.506105      0.372459873     -53.5356933
131.94               0.349907515     -65.7671801      0.316771196      162.850315      0.614318257     -94.0565916      0.257916804     0.905572599
                     0.316771195      162.850315      0.350186331     -65.8408339      0.257443176     0.914521371       0.61424948     -94.0180552
                     0.614318256     -94.0565917      0.257443175     0.914521363      0.373210663     -53.6830473      0.494909239     -142.664944
                     0.257916804     0.905572691       0.61424948     -94.0180551      0.494909239     -142.664944      0.372760392     -53.6392856
132.08               0.349432096     -65.8430159       0.31699793      162.612065      0.614291568     -94.2011624      0.257072142     0.857571284
                     0.316997929      162.612065       0.34971024     -65.9167864      0.256600872     0.866539182      0.614223647     -94.1625476
                     0.614291568     -94.2011625      0.256600871     0.866539174      0.373510774     -53.7868475      0.494411449     -142.823692
                     0.257072142     0.857571376      0.614223647     -94.1625476      0.494411449     -142.823692      0.373059587     -53.7428238
132.22               0.348958143      -65.918527      0.317226955       162.37457      0.614261667     -94.3453994      0.256234765       0.8098863
                     0.317226954       162.37457      0.349235616     -65.9924138      0.255765828     0.818872868      0.614194603     -94.3067068
                     0.614261667     -94.3453995      0.255765828      0.81887286      0.373809553     -53.8905933      0.493915508     -142.982349
                     0.256234766     0.809886392      0.614194603     -94.3067068      0.493915508     -142.982348      0.373357457     -53.8463074
132.36               0.348485653     -65.9937155      0.317458247       162.13783      0.614228576     -94.4893023      0.255404582     0.762513891
                     0.317458245       162.13783      0.348762457     -66.0677179      0.254937953     0.771518679      0.614162371     -94.4505325
                     0.614228576     -94.4893024      0.254937952     0.771518671      0.374106999      -53.994284      0.493421414     -143.140913
                     0.255404583     0.762513983      0.614162371     -94.4505324      0.493421415     -143.140913      0.373654001     -53.9497358
132.5                0.348014622      -66.068583      0.317691782      161.901845      0.614192319     -94.6328708      0.254581501     0.715450363
                     0.317691781      161.901845      0.348290759     -66.1427006      0.254117155     0.724472931      0.614126975     -94.5940243
                     0.614192319     -94.6328709      0.254117154     0.724472923      0.374403111     -54.0979191      0.492929166     -143.299386
                     0.254581502     0.715450454      0.614126975     -94.5940243      0.492929167     -143.299385      0.373949217     -54.0531084
132.64               0.347545047     -66.1431314      0.317927539      161.666614      0.614152919     -94.7761048      0.253765432     0.668692082
                     0.317927538      161.666614      0.347820519     -66.2173637      0.253303345     0.677731999      0.614088437     -94.7371821
                     0.614152919     -94.7761049      0.253303344     0.677731991      0.374697888      -54.201498      0.492438762     -143.457765
                     0.253765433     0.668692173      0.614088437     -94.7371821      0.492438762     -143.457765      0.374243106     -54.1564246
132.78               0.347076925     -66.2173626      0.318165494      161.432138      0.614110398      -94.919004      0.252956287     0.622235477
                     0.318165492      161.432138      0.347351734     -66.2917089      0.252496434     0.631292319       0.61404678     -94.8800057
                     0.614110398     -94.9190041      0.252496433     0.631292312      0.374991329     -54.3050201        0.4919502     -143.616052
                     0.252956288     0.622235568       0.61404678     -94.8800057      0.491950201     -143.616052      0.374535667     -54.2596839
132.92               0.346610252     -66.2912783      0.318405624      161.198415       0.61406478     -95.0615682      0.252153979     0.576077033
                     0.318405622      161.198415      0.346884399     -66.3657382      0.251696337     0.585150385      0.614002028     -95.0224948
                      0.61406478     -95.0615683      0.251696336     0.585150378      0.375283435     -54.4084848      0.491463479     -143.774245
                      0.25215398     0.576077124      0.614002028     -95.0224948      0.491463479     -143.774245      0.374826898     -54.3628856
133.06               0.346145025     -66.3648803      0.318647906      160.965446      0.614016088     -95.2037972      0.251358423     0.530213295
                     0.318647905      160.965446      0.346418512     -66.4394532      0.250902967      0.53930275      0.613954203     -95.1646493
                     0.614016088     -95.2037972      0.250902967     0.539302743      0.375574203     -54.5118916      0.490978596     -143.932344
                     0.251358423     0.530213386      0.613954203     -95.1646492      0.490978597     -143.932344      0.375116799     -54.4660291
133.2                 0.34568124     -66.4381704      0.318892319      160.733231      0.613964344     -95.3456908      0.250569534     0.484640863
                     0.318892318      160.733231      0.345954069     -66.5128558      0.250116243     0.493746021      0.613903328     -95.3064689
                     0.613964344     -95.3456908      0.250116242     0.493746014      0.375863633     -54.6152397      0.490495551     -144.090348
                     0.250569534     0.484640954      0.613903328     -95.3064689      0.490495552     -144.090348      0.375405369      -54.569114
133.34               0.345218893     -66.5111504       0.31913884      160.501768      0.613909572     -95.4872488       0.24978723     0.439356392
                     0.319138838      160.501768      0.345491067     -66.5859477       0.24933608     0.448476861      0.613849425     -95.4479535
                     0.613909572     -95.4872489      0.249336079     0.448476854      0.376151725     -54.7185287      0.490014341     -144.248258
                      0.24978723     0.439356483      0.613849425     -95.4479535      0.490014341     -144.248258      0.375692608     -54.6721396
133.48               0.344757982     -66.5838219      0.319387445      160.271057      0.613851794     -95.6284712      0.249011429     0.394356592
                     0.319387444      160.271057      0.345029502     -66.6587308      0.248562399     0.403491987      0.613792519      -95.589103
                     0.613851794     -95.6284712      0.248562398      0.40349198      0.376438477      -54.821758      0.489534964     -144.406073
                     0.249011429     0.394356683      0.613792519     -95.5891029      0.489534965     -144.406073      0.375978514     -54.7751053
133.62               0.344298502     -66.6561868      0.319638114      160.041098      0.613791034     -95.7693577      0.248242052     0.349638226
                     0.319638113      160.041098       0.34456937     -66.7312066      0.247795119      0.35878817      0.613732631     -95.7299172
                     0.613791033     -95.7693578      0.247795119     0.358788163       0.37672389      -54.924927      0.489057419     -144.563792
                     0.248242052     0.349638316      0.613732631     -95.7299171       0.48905742     -144.563792      0.376263088     -54.8780106
133.76                0.34384045     -66.7282468      0.319890824       159.81189      0.613727313     -95.9099082       0.24747902     0.305198109
                     0.319890823       159.81189      0.344110667      -66.803377      0.247034163     0.314362231      0.613669785     -95.8703959
                     0.613727313     -95.9099083      0.247034162     0.314362224      0.377007962     -55.0280351      0.488581704     -144.721415
                      0.24747902     0.305198199      0.613669785     -95.8703959      0.488581704     -144.721415      0.376546329     -54.9808549
133.9                0.343383823     -66.8000035      0.320145553      159.583432      0.613660656     -96.0501227      0.246722255     0.261033106
                     0.320145552      159.583432      0.343653391     -66.8752437      0.246279453     0.270211042      0.613604002     -96.0105391
                     0.613660656     -96.0501228      0.246279452     0.270211035      0.377290694     -55.1310818      0.488107816     -144.878941
                     0.246722256     0.261033195      0.613604003     -96.0105391      0.488107817     -144.878941      0.376828236     -55.0836377
134.04               0.342928616     -66.8714588       0.32040228      159.355724      0.613591084      -96.190001      0.245971682     0.217140132
                     0.320402278      159.355724      0.343197538     -66.9468084      0.245530913     0.226331526      0.613535307     -96.1503467
                     0.613591084     -96.1900011      0.245530912     0.226331519      0.377572084     -55.2340664      0.487635755     -145.036371
                     0.245971682     0.217140221      0.613535307     -96.1503466      0.487635755     -145.036371      0.377108809     -55.1863582
134.18               0.342474826     -66.9426143      0.320660981      159.128765      0.613518621     -96.3295431      0.245227225     0.173516152
                      0.32066098      159.128765      0.342743103     -67.0180728      0.244788468     0.182720653      0.613463721     -96.2898185
                     0.613518621     -96.3295432      0.244788468     0.182720646      0.377852133     -55.3369885      0.487165517     -145.193703
                     0.245227225     0.173516241      0.613463722     -96.2898185      0.487165517     -145.193703      0.377388047     -55.2890161
134.32               0.342022449     -67.0134717      0.320921637      158.902555      0.613443289     -96.4687488      0.244488811     0.130158178
                     0.320921636      158.902555      0.342290083     -67.0890386      0.244052046     0.139375443      0.613389268     -96.4289546
                     0.613443289     -96.4687489      0.244052046     0.139375436      0.378130839     -55.4398474      0.486697101     -145.350938
                     0.244488811     0.130158267      0.613389268     -96.4289545      0.486697101     -145.350938      0.377665951     -55.3916107
134.46               0.341571481     -67.0840326      0.321184225      158.677091      0.613365112     -96.6076182      0.243756366    0.0870632688
                     0.321184224      158.677091      0.341838475     -67.1597075      0.243321574    0.0962929602       0.61331197     -96.5677548
                     0.613365111     -96.6076182      0.243321574    0.0962929535      0.378408202     -55.5426425      0.486230505     -145.508074
                     0.243756367    0.0870633578       0.61331197     -96.5677547      0.486230506     -145.508074      0.377942519     -55.4941415
134.6                0.341121919     -67.1542987      0.321448724      158.452375       0.61328411     -96.7461511      0.243029821    0.0442285302
                     0.321448723      158.452375      0.341388274     -67.2300811      0.242596981    0.0534703168      0.613231849     -96.7062191
                      0.61328411     -96.7461511       0.24259698    0.0534703102      0.378684223     -55.6453733      0.485765727     -145.665112
                     0.243029821     0.044228619      0.613231849      -96.706219      0.485765728     -145.665112      0.378217751     -55.5966079
134.74               0.340673759     -67.2242718      0.321715113      158.228404      0.613200308     -96.8843475      0.242309103    0.0016511121
                     0.321715112      158.228404      0.340939477     -67.3001611      0.241878196    0.0109046688      0.613148928     -96.8443474
                     0.613200308     -96.8843476      0.241878196    0.0109046622      0.378958901     -55.7480393      0.485302765     -145.822051
                     0.242309104   0.00165120071      0.613148928     -96.8443474      0.485302765     -145.822051      0.378491648     -55.6990093
134.88               0.340226997     -67.2939534      0.321983371      158.005178      0.613113728     -97.0222074      0.241594145   -0.0406717911
                      0.32198337      158.005177      0.340492079     -67.3699492      0.241165151   -0.0314067833      0.613063229     -96.9821398
                     0.613113728     -97.0222075      0.241165151   -0.0314067898      0.379232235     -55.8506399      0.484841616     -145.978891
                     0.241594145   -0.0406717026       0.61306323     -96.9821398      0.484841617     -145.978891      0.378764208     -55.8013452
135.02               0.339781629     -67.3633451      0.322253477      157.782695      0.613024392     -97.1597309      0.240884878   -0.0827429415
                     0.322253475      157.782695      0.340046078     -67.4394469      0.240457778    -0.073466796      0.612974776     -97.1195962
                     0.613024392     -97.1597309      0.240457778   -0.0734668025      0.379504226     -55.9531745       0.48438228     -146.135631
                     0.240884878   -0.0827428532      0.612974776     -97.1195962       0.48438228      -146.13563      0.379035432     -55.9036151
135.16               0.339337652     -67.4324486      0.322525409      157.560956      0.612932323     -97.2969178      0.240181234    -0.124565059
                     0.322525407      157.560956      0.339601469     -67.5086559      0.239756011    -0.115278083       0.61288359     -97.2567166
                     0.612932323     -97.2969179       0.23975601     -0.11527809      0.379774872     -56.0556426      0.483924752      -146.29227
                     0.240181235    -0.124564971      0.612883591     -97.2567166      0.483924753      -146.29227       0.37930532     -56.0058184
135.3                0.338895061     -67.5012656      0.322799147      157.339958      0.612837543     -97.4337682      0.239483149    -0.166140821
                     0.322799146      157.339958      0.339158249     -67.5775779      0.239059782    -0.156843318      0.612789695     -97.3935011
                     0.612837543     -97.4337683      0.239059782    -0.156843324      0.380044175     -56.1580436      0.483469032     -146.448809
                     0.239483149    -0.166140733      0.612789695      -97.393501      0.483469033     -146.448809      0.379573871     -56.1079546
135.44               0.338453852     -67.5697975      0.323074671      157.119701      0.612740075     -97.5702822      0.238790556    -0.207472866
                     0.323074669      157.119701      0.338716413     -67.6462144      0.238369029    -0.198165131      0.612693111     -97.5299496
                     0.612740075     -97.5702823      0.238369028    -0.198165137      0.380312134      -56.260377      0.483015118     -146.605247
                     0.238790557    -0.207472778      0.612693111     -97.5299496      0.483015118     -146.605246      0.379841085      -56.210023
135.58               0.338014023     -67.6380461      0.323351959      156.900183      0.612639941     -97.7064598      0.238103393     -0.24856379
                     0.323351958      156.900183      0.338275958     -67.7145671      0.237683686    -0.239246114      0.612593862     -97.6660622
                      0.61263994     -97.7064599      0.237683685     -0.23924612      0.380578748     -56.3626422      0.482563006     -146.761583
                     0.238103393    -0.248563702      0.612593862     -97.6660622      0.482563006     -146.761583      0.380106962     -56.3120232
135.72               0.337575568     -67.7060128      0.323630992      156.681405      0.612537162      -97.842301      0.237421595    -0.289416151
                     0.323630991      156.681404      0.337836879     -67.7826374      0.237003692    -0.280088821      0.612491969      -97.801839
                     0.612537162      -97.842301      0.237003691    -0.280088827      0.380844019     -56.4648386      0.482112695     -146.917817
                     0.237421595    -0.289416064      0.612491969      -97.801839      0.482112695     -146.917817      0.380371503     -56.4139546
135.86               0.337138484     -67.7736993       0.32391175      156.463363      0.612431763     -97.9778059      0.236745101    -0.330032468
                     0.323911749      156.463363      0.337399173      -67.850427      0.236328983    -0.320695764      0.612387455       -97.93728
                     0.612431762     -97.9778059      0.236328983    -0.320695771      0.381107945     -56.5669658      0.481664182     -147.073949
                     0.236745101    -0.330032381      0.612387455       -97.93728      0.481664183     -147.073949      0.380634707     -56.5158168
136                  0.336702767     -67.8411071      0.324194211      156.246057      0.612323763     -98.1129745      0.236073849    -0.370415224
                      0.32419421      156.246057      0.336962836     -67.9179375      0.235659501    -0.361069422      0.612280342     -98.0723853
                     0.612323763     -98.1129746        0.2356595    -0.361069428      0.381370527     -56.6690232      0.481217465     -147.229978
                      0.23607385    -0.370415137      0.612280342     -98.0723852      0.481217466     -147.229978      0.380896574      -56.617609
136.14               0.336268412     -67.9082378      0.324478357      156.029487      0.612213186      -98.247807       0.23540778    -0.410566861
                     0.324478356      156.029487      0.336527864     -67.9851704      0.234995184    -0.401212232      0.612170652     -98.2071549
                     0.612213186     -98.2478071      0.234995183    -0.401212238      0.381631765     -56.7710102      0.480772543     -147.385904
                     0.235407781    -0.410566774      0.612170652     -98.2071549      0.480772543     -147.385904      0.381157104     -56.7193309
136.28               0.335835417     -67.9750928      0.324764167       155.81365      0.612100054     -98.3823035      0.234746835    -0.450489789
                     0.324764166       155.81365      0.336094252     -68.0521273      0.234335973    -0.441126598      0.612058407      -98.341589
                     0.612100054     -98.3823035      0.234335972    -0.441126604       0.38189166     -56.8729264      0.480329412     -147.541727
                     0.234746835    -0.450489702      0.612058407     -98.3415889      0.480329412     -147.541727      0.381416298     -56.8209818
136.42               0.335403777     -68.0416739      0.325051622      155.598545      0.611984389      -98.516464      0.234090954    -0.490186379
                     0.325051621      155.598545      0.335661998     -68.1188096      0.233681811    -0.480814888      0.611943629     -98.4756877
                     0.611984389      -98.516464       0.23368181    -0.480814894       0.38215021     -56.9747711       0.47988807     -147.697445
                     0.234090955    -0.490186292      0.611943629     -98.4756876      0.479888071     -147.697445      0.381674156     -56.9225613
136.56               0.334973487     -68.1079824      0.325340701      155.384172      0.611866212     -98.6502886      0.233440081    -0.529658969
                       0.3253407      155.384171      0.335231096      -68.185219       0.23303264    -0.520279435      0.611826339      -98.609451
                     0.611866212     -98.6502887      0.233032639    -0.520279441      0.382407417     -57.0765438      0.479448515     -147.853059
                     0.233440081    -0.529658882      0.611826339     -98.6094509      0.479448515     -147.853059      0.381930678     -57.0240688
136.7                0.334544545     -68.1740198      0.325631386      155.170528      0.611745546     -98.7837776      0.232794159    -0.568909861
                     0.325631385      155.170527      0.334801543     -68.2513569      0.232388403    -0.559522535       0.61170656     -98.7428791
                     0.611745546     -98.7837777      0.232388403    -0.559522541      0.382663281     -57.1782441      0.479010744     -148.008568
                     0.232794159    -0.568909775      0.611706561     -98.7428791      0.479010745     -148.008568      0.382185864     -57.1255039
136.84               0.334116945     -68.2397878      0.325923657      154.957612      0.611622411     -98.9169311      0.232153131    -0.607941325
                     0.325923656      154.957612      0.334373335     -68.3172248      0.231749046    -0.598546455      0.611584314     -98.8759723
                     0.611622411     -98.9169311      0.231749045    -0.598546461      0.382917802     -57.2798714      0.478574756     -148.163972
                     0.232153132    -0.607941238      0.611584314     -98.8759722      0.478574756     -148.163972      0.382439714     -57.2268659
136.98               0.333690685     -68.3052877      0.326217495      154.745423      0.611496831     -99.0497491      0.231516944    -0.646755596
                     0.326217494      154.745423      0.333946468     -68.3828243      0.231114513    -0.637353426      0.611459621     -99.0087305
                     0.611496831     -99.0497492      0.231114512    -0.637353432       0.38317098     -57.3814251      0.478140547     -148.319271
                     0.231516944     -0.64675551      0.611459621     -99.0087304      0.478140547     -148.319271      0.382692229     -57.3281543
137.12               0.333265759     -68.3705211       0.32651288      154.533959      0.611368826     -99.1822319      0.230885542    -0.685354878
                     0.326512879      154.533959      0.333520938     -68.4481567      0.230484751    -0.675945646      0.611332504     -99.1411539
                     0.611368826      -99.182232       0.23048475    -0.675945652      0.383422815     -57.4829048      0.477708115     -148.474463
                     0.230885543    -0.685354792      0.611332504     -99.1411539      0.477708115     -148.474463      0.382943409     -57.4293687
137.26               0.332842164     -68.4354895      0.326809794       154.32322      0.611238418     -99.3143796      0.230258873    -0.723741343
                     0.326809793       154.32322       0.33309674     -68.5132237      0.229859705    -0.714325284      0.611202984     -99.2732428
                     0.611238418     -99.3143797      0.229859705     -0.71432529      0.383673309     -57.5843099      0.477277458     -148.629548
                     0.230258874    -0.723741257      0.611202984     -99.2732428      0.477277458     -148.629548      0.383193255     -57.5305085
137.4                0.332419895     -68.5001942      0.327108218      154.113203      0.611105629     -99.4461924      0.229636884    -0.761917131
                     0.327108217      154.113202      0.332673871     -68.5780267      0.229239325    -0.752494476      0.611071082     -99.4049974
                     0.611105629     -99.4461925      0.229239324    -0.752494481      0.383922461     -57.6856399      0.476848572     -148.784527
                     0.229636885    -0.761917045      0.611071082     -99.4049973      0.476848573     -148.784527      0.383441767     -57.6315732
137.54                0.33199895     -68.5646368      0.327408133      153.903906       0.61097048     -99.5776706      0.229019524    -0.799884351
                     0.327408132      153.903906      0.332252326     -68.6425671      0.228623558    -0.790455326       0.61093682     -99.5364177
                      0.61097048     -99.5776707      0.228623558    -0.790455332      0.384170272     -57.7868943      0.476421457     -148.939398
                     0.229019524    -0.799884266       0.61093682     -99.5364176      0.476421457     -148.939398      0.383688945     -57.7325624
137.68               0.331579322     -68.6288188      0.327709521      153.695329      0.610832992     -99.7088142       0.22840674    -0.837645083
                      0.32770952      153.695329      0.331832102     -68.7068463      0.228012354    -0.828209911       0.61080022      -99.667504
                     0.610832992     -99.7088143      0.228012353    -0.828209917      0.384416742     -57.8880726      0.475996108     -149.094162
                      0.22840674    -0.837644998       0.61080022      -99.667504      0.475996109     -149.094162      0.383934789     -57.8334754
137.82               0.331161009     -68.6927414      0.328012363       153.48747      0.610693187     -99.8396236      0.227798483    -0.875201377
                     0.328012361       153.48747      0.331413194     -68.7708659      0.227405662    -0.865760276      0.610661302     -99.7982566
                     0.610693187     -99.8396237      0.227405661    -0.865760282      0.384661872     -57.9891742      0.475572524     -149.248817
                     0.227798483    -0.875201292      0.610661302     -99.7982565      0.475572525     -149.248817      0.384179302     -57.9343118
137.96               0.330744007     -68.7564062       0.32831664      153.280327      0.610551086      -99.970099      0.227194703    -0.912555253
                     0.328316638      153.280327      0.330995598     -68.8346272      0.226803433    -0.903108438      0.610520087     -99.9286755
                     0.610551086      -99.970099      0.226803432    -0.903108444      0.384905662     -58.0901987      0.475150702     -149.403364
                     0.227194704    -0.912555168      0.610520087     -99.9286755      0.475150703     -149.403364      0.384422482      -58.035071
138.1                0.330328311     -68.8198147      0.328622334      153.073899       0.61040671      -100.10024      0.226595352    -0.949708703
                     0.328622333      153.073899      0.330579311     -68.8981317      0.226205618    -0.940256385      0.610376597     -100.058761
                     0.610406709     -100.100241      0.226205617    -0.940256391      0.385148114     -58.1911455      0.474730639     -149.557802
                     0.226595353    -0.949708618      0.610376598     -100.058761       0.47473064     -149.557802      0.384664331     -58.1357527
138.24               0.329913917     -68.8829681      0.328929428      152.868183      0.610260079     -100.230048      0.226000381    -0.986663691
                     0.328929427      152.868183      0.330164327     -68.9613808       0.22561217    -0.977206079      0.610230853     -100.188514
                     0.610260079     -100.230049      0.225612169    -0.977206084      0.385389227     -58.2920142      0.474312333      -149.71213
                     0.226000382    -0.986663606      0.610230853     -100.188514      0.474312334      -149.71213      0.384904848     -58.2363563
138.38                0.32950082     -68.9458679      0.329237904      152.663179      0.610111216     -100.359523      0.225409743     -1.02342215
                     0.329237902      152.663179      0.329750644     -69.0243758      0.225023041     -1.01395945      0.610082876     -100.317934
                     0.610111216     -100.359523       0.22502304     -1.01395946      0.385629002     -58.3928043      0.473895781     -149.866349
                     0.225409744     -1.02342207      0.610082876     -100.317933      0.473895781     -149.866349      0.385144036     -58.3368812
138.52               0.329089018     -69.0085155      0.329547743      152.458885      0.609960141     -100.488665      0.224823391       -1.059986
                     0.329547741      152.458885      0.329338256     -69.0871182      0.224438184     -1.05051841      0.609932686     -100.447021
                     0.609960141     -100.488665      0.224438183     -1.05051841      0.385867441     -58.4935151       0.47348098     -150.020457
                     0.224823392     -1.05998592      0.609932686     -100.447021       0.47348098     -150.020457      0.385381895      -58.437327
138.66               0.328678505     -69.0709123      0.329858927      152.255298      0.609806874     -100.617473      0.224241279     -1.09635711
                     0.329858926      152.255298       0.32892716     -69.1496094      0.223857554     -1.08688483      0.609780304     -100.575776
                     0.609806874     -100.617474      0.223857553     -1.08688483      0.386104543     -58.5941464      0.473067927     -150.174454
                      0.22424128     -1.09635703      0.609780304     -100.575776      0.473067928     -150.174454      0.385618424     -58.5376933
138.8                0.328269279     -69.1330596       0.33017144      152.052417      0.609651437      -100.74595      0.223663362     -1.13253735
                     0.330171439      152.052417      0.328517351     -69.2118507      0.223281105     -1.12306056      0.609625751     -100.704198
                     0.609651437      -100.74595      0.223281104     -1.12306057      0.386340309     -58.6946975      0.472656621     -150.328341
                     0.223663362     -1.13253727      0.609625751     -100.704198      0.472656622     -150.328341      0.385853626     -58.6379794
138.94               0.327861333     -69.1949589      0.330485264      151.850241       0.60949385     -100.874094      0.223089594     -1.16852854
                     0.330485263      151.850241      0.328108826     -69.2738436      0.222708793     -1.15904745      0.609469048      -100.83229
                      0.60949385     -100.874094      0.222708792     -1.15904745      0.386574741      -58.795168      0.472247058     -150.482116
                     0.223089594     -1.16852846      0.609469048     -100.832289      0.472247058     -150.482116        0.3860875      -58.738185
139.08               0.327454665     -69.2566114      0.330800381      151.648767      0.609334134     -101.001906      0.222519931      -1.2043325
                      0.33080038      151.648767       0.32770158     -69.3355893      0.222140573     -1.19484728      0.609310214     -100.960049
                     0.609334134     -101.001906      0.222140573     -1.19484728      0.386807839     -58.8955573      0.471839235     -150.635779
                     0.222519932     -1.20433241      0.609310214     -100.960049      0.471839236     -150.635779      0.386320049     -58.8383096
139.22                0.32704927     -69.3180186      0.331116774      151.447994      0.609172308     -101.129386      0.221954331     -1.23995099
                     0.331116773      151.447994      0.327295609     -69.3970892      0.221576403     -1.23046183      0.609149271     -101.087478
                     0.609172308     -101.129387      0.221576403     -1.23046184      0.387039604     -58.9958651       0.47143315      -150.78933
                     0.221954331     -1.23995091      0.609149271     -101.087478       0.47143315      -150.78933      0.386551271     -58.9383526
139.36               0.326645144     -69.3791817      0.331434427       151.24792      0.609008394     -101.256536      0.221392749     -1.27538578
                     0.331434425       151.24792      0.326890909     -69.4583447      0.221016239     -1.26589286      0.608986239     -101.214575
                     0.609008394     -101.256536      0.221016239     -1.26589287      0.387270037     -59.0960908        0.4710288     -150.942767
                      0.22139275      -1.2753857      0.608986239     -101.214575        0.4710288     -150.942767       0.38678117     -59.0383136
139.5                0.326242283     -69.4401021      0.331753321      151.048544      0.608842412     -101.383354      0.220835144     -1.31063861
                      0.33175332      151.048544      0.326487476      -69.519357       0.22046004     -1.30114211      0.608821138     -101.341343
                     0.608842412     -101.383354      0.220460039     -1.30114211      0.387499139     -59.1962339      0.470626181     -151.096092
                     0.220835145     -1.31063852      0.608821138     -101.341343      0.470626182     -151.096092      0.387009744     -59.1381921
139.64               0.325840683     -69.5007811      0.332073441      150.849862      0.608674382     -101.509842      0.220281474     -1.34571117
                      0.33207344      150.849862      0.326085306     -69.5801276      0.219907763     -1.33621127      0.608653988      -101.46778
                     0.608674382     -101.509842      0.219907762     -1.33621127       0.38772691      -59.296294      0.470225292     -151.249304
                     0.220281475     -1.34571109      0.608653988      -101.46778      0.470225293     -151.249304      0.387236997     -59.2379877
139.78               0.325440339       -69.56122       0.33239477      150.651874      0.608504324     -101.635999      0.219731698     -1.38060516
                     0.332394769      150.651874      0.325684394     -69.6406577      0.219359367     -1.37110202      0.608484809     -101.593887
                     0.608504324     -101.635999      0.219359367     -1.37110203      0.387953353     -59.3962706       0.46982613     -151.402401
                     0.219731698     -1.38060508       0.60848481     -101.593887       0.46982613     -151.402401      0.387462927     -59.3376998
139.92               0.325041248     -69.6214202      0.332717291      150.454578      0.608332258     -101.761826      0.219185775     -1.41532224
                     0.332717289      150.454578      0.325284736     -69.7009487      0.218814813     -1.40581604      0.608313622     -101.719665
                     0.608332258     -101.761827      0.218814813     -1.40581604      0.388178467     -59.4961632      0.469428691     -151.555384
                     0.219185775     -1.41532216      0.608313622     -101.719665      0.469428691     -151.555384      0.387687537     -59.4373281
140.06               0.324643405     -69.6813829      0.333040987      150.257971      0.608158204     -101.887324      0.218643664     -1.44986405
                     0.333040986      150.257971      0.324886328     -69.7610017       0.21827406     -1.44035495      0.608140446     -101.845113
                     0.608158204     -101.887324       0.21827406     -1.44035495      0.388402254     -59.5959713      0.469032972     -151.708252
                     0.218643665     -1.44986397      0.608140446     -101.845113      0.469032973     -151.708252      0.387910827      -59.536872
140.2                0.324246807     -69.7411094      0.333365843      150.062052      0.607982182     -102.012493      0.218105328     -1.48423222
                     0.333365841      150.062052      0.324489167     -69.8208183      0.217737069     -1.47472038      0.607965301     -101.970233
                     0.607982182     -102.012493      0.217737069     -1.47472038      0.388624715     -59.6956945      0.468638972     -151.861005
                     0.218105328     -1.48423214      0.607965301     -101.970233      0.468638972     -151.861005      0.388132799     -59.6363311
140.34               0.323851448      -69.800601      0.333691841      149.866819      0.607804212     -102.137333      0.217570725     -1.51842833
                      0.33369184      149.866819      0.324093247     -69.8803995      0.217203801     -1.50891391      0.607788207     -102.095025
                     0.607804212     -102.137333      0.217203801     -1.50891392      0.388845851     -59.7953324      0.468246686     -152.013642
                     0.217570726     -1.51842825      0.607788207     -102.095025      0.468246686     -152.013642      0.388353454     -59.7357049
140.48               0.323457325     -69.8598589      0.334018967       149.67227      0.607624313     -102.261844      0.217039819     -1.55245397
                     0.334018965       149.67227      0.323698565     -69.9397467      0.216674218     -1.54293713      0.607609182     -102.219488
                     0.607624313     -102.261844      0.216674217     -1.54293714      0.389065663     -59.8948844      0.467856112     -152.166163
                      0.21703982     -1.55245389      0.607609183     -102.219488      0.467856112     -152.166163      0.388572792     -59.8349929
140.62               0.323064434     -69.9188845      0.334347203      149.478403      0.607442505     -102.386027      0.216512571     -1.58631069
                     0.334347202      149.478403      0.323305117     -69.9988612      0.216148282     -1.57679159      0.607428248     -102.343624
                     0.607442505     -102.386028      0.216148281     -1.57679159      0.389284153       -59.99435      0.467467247     -152.318568
                     0.216512572     -1.58631061      0.607428248     -102.343624      0.467467247     -152.318568      0.388790816     -59.9341948
140.76                0.32267277      -69.977679      0.334676535      149.285215      0.607258807     -102.509883      0.215988944     -1.62000003
                     0.334676534      149.285215      0.322912898     -70.0577441      0.215625955     -1.61047881      0.607245423     -102.467433
                     0.607258807     -102.509883      0.215625955     -1.61047882      0.389501321      -60.093729      0.467080088     -152.470856
                     0.215988945     -1.61999995      0.607245424     -102.467433      0.467080088     -152.470856      0.389007526     -60.0333101
140.9                 0.32228233     -70.0362436      0.335006947      149.092706      0.607073239     -102.633411      0.215468901      -1.6535235
                     0.335006945      149.092706      0.322521904     -70.1163969      0.215107202     -1.64400032      0.607060727     -102.590915
                     0.607073239     -102.633412      0.215107201     -1.64400033       0.38971717     -60.1930207      0.466694631     -152.623027
                     0.215468901     -1.65352342      0.607060727     -102.590915      0.466694632     -152.623027      0.389222923     -60.1323382
141.04               0.321893109     -70.0945796      0.335338422      148.900873       0.60688582     -102.756613      0.214952405      -1.6868826
                     0.335338421      148.900873      0.322132132     -70.1748206      0.214591985      -1.6773576      0.606874179      -102.71407
                      0.60688582     -102.756613      0.214591984     -1.67735761        0.3899317     -60.2922247      0.466310875      -152.77508
                     0.214952406     -1.68688251      0.606874179      -102.71407      0.466310876      -152.77508       0.38943701     -60.2312788
141.18               0.321505103     -70.1526882      0.335670946      148.709713      0.606696569     -102.879488      0.214439421      -1.7200788
                     0.335670944      148.709713      0.321743576     -70.2330165      0.214080269     -1.71055213      0.606685798       -102.8369
                     0.606696569     -102.879488      0.214080268     -1.71055214      0.390144912     -60.3913407      0.465928816     -152.927015
                     0.214439422     -1.72007871      0.606685798       -102.8369      0.465928817     -152.927015      0.389649786     -60.3301315
141.32               0.321118309     -70.2105706      0.336004502      148.519226      0.606505505     -103.002037      0.213929914     -1.75311356
                     0.336004501      148.519226      0.321356234      -70.290986      0.213572019     -1.74358537      0.606495602     -102.959404
                     0.606505505     -103.002037      0.213572018     -1.74358537      0.390356808     -60.4903681      0.465548451     -153.078832
                     0.213929914     -1.75311348      0.606495603     -102.959404      0.465548451     -153.078832      0.389861254     -60.4288957
141.46               0.320732721     -70.2682281      0.336339077      148.329408      0.606312648     -103.124261      0.213423847     -1.78598832
                     0.336339076      148.329408        0.3209701     -70.3487301      0.213067199     -1.77645874      0.606303612     -103.081583
                     0.606312648     -103.124261      0.213067199     -1.77645875       0.39056739     -60.5893065      0.465169776      -153.23053
                     0.213423847     -1.78598824      0.606303613     -103.081583      0.465169777     -153.230529      0.390071415     -60.5275711
141.6                0.320348335     -70.3256618      0.336674654      148.140258      0.606118016     -103.246159      0.212921187      -1.8187045
                     0.336674653      148.140258       0.32058517     -70.4062501      0.212565776     -1.80917367      0.606109846     -103.203437
                     0.606118016     -103.246159      0.212565776     -1.80917367      0.390776658     -60.6881554       0.46479279     -153.382108
                     0.212921187     -1.81870442      0.606109846     -103.203437       0.46479279     -153.382108       0.39028027     -60.6261572
141.74               0.319965148      -70.382873       0.33701122      147.951774      0.605921627     -103.367733        0.2124219     -1.85126349
                     0.337011218      147.951774      0.320201441     -70.4635471      0.212067716     -1.84173155      0.605914323     -103.324967
                     0.605921627     -103.367733      0.212067715     -1.84173156      0.390984615     -60.7869145      0.464417488     -153.533567
                       0.2124219     -1.85126341      0.605914323     -103.324967      0.464417488     -153.533567      0.390487821     -60.7246535
141.88               0.319583156     -70.4398628      0.337348758      147.763954      0.605723502     -103.488983      0.211925952      -1.8836667
                     0.337348756      147.763954      0.319818908     -70.5206225      0.211572984     -1.87413377      0.605717061     -103.446173
                     0.605723502     -103.488983      0.211572984     -1.87413378      0.391191261     -60.8855833      0.464043867     -153.684906
                     0.211925952     -1.88366662      0.605717061     -103.446173      0.464043868     -153.684906      0.390694069     -60.8230598
142.02               0.319202354     -70.4966325      0.337687254      147.576795      0.605523658     -103.609909       0.21143331     -1.91591547
                     0.337687253      147.576795      0.319437567     -70.5774774      0.211081549     -1.90638169      0.605518079     -103.567056
                     0.605523658     -103.609909      0.211081548      -1.9063817      0.391396598     -60.9841614      0.463671926     -153.836124
                      0.21143331     -1.91591539      0.605518079     -103.567056      0.463671926     -153.836124      0.390899016     -60.9213754
142.16               0.318822738     -70.5531832      0.338026694      147.390296      0.605322113     -103.730511      0.210943941     -1.94801115
                     0.338026693      147.390296      0.319057415     -70.6341129      0.210593377     -1.93847666      0.605317395     -103.687616
                     0.605322113     -103.730511      0.210593377     -1.93847666      0.391600628     -61.0826483      0.463301659     -153.987222
                     0.210943941     -1.94801107      0.605317395     -103.687616       0.46330166     -153.987222      0.391102664     -61.0196001
142.3                0.318444304      -70.609516      0.338367063      147.204454      0.605118887     -103.850791      0.210457813     -1.97995509
                     0.338367062      147.204454      0.318678446     -70.6905302      0.210108436        -1.97042      0.605115028     -103.807854
                     0.605118887     -103.850791      0.210108436     -1.97042001      0.391803352     -61.1810436      0.462933065     -154.138198
                     0.210457814     -1.97995501      0.605115028     -103.807854      0.462933065     -154.138198      0.391305013     -61.1177333
142.44               0.318067048     -70.6656322      0.338708346      147.019267      0.604913997     -103.970749      0.209974895     -2.01174859
                     0.338708345      147.019267      0.318300657     -70.7467305      0.209626695     -2.00221303      0.604910996     -103.927769
                     0.604913997     -103.970749      0.209626695     -2.00221304      0.392004772     -61.2793468       0.46256614     -154.289053
                     0.209974895     -2.01174851      0.604910996     -103.927769       0.46256614     -154.289053      0.391506065     -61.2157747
142.58               0.317690966     -70.7215329       0.33905053      146.834734      0.604707462     -104.090384      0.209495154     -2.04339295
                     0.339050529      146.834734      0.317924043      -70.802715      0.209148123     -2.03385705      0.604705317     -104.047364
                     0.604707462     -104.090384      0.209148122     -2.03385705       0.39220489     -61.3775577       0.46220088     -154.439785
                     0.209495154     -2.04339287      0.604705318     -104.047364      0.462200881     -154.439785      0.391705823     -61.3137238
142.72               0.317316054     -70.7772192      0.339393601      146.650852      0.604499299     -104.209699      0.209018559     -2.07488946
                     0.339393599      146.650852      0.317548601     -70.8584847      0.208672687     -2.06535332       0.60449801     -104.166637
                     0.604499299     -104.209699      0.208672686     -2.06535333      0.392403707     -61.4756757      0.461837283     -154.590395
                      0.20901856     -2.07488938       0.60449801     -104.166637      0.461837284     -154.590395      0.391904287     -61.4115802
142.86               0.316942307     -70.8326924      0.339737543      146.467618      0.604289527     -104.328692      0.208545081     -2.10623938
                     0.339737542      146.467618      0.317174327     -70.9140409      0.208200358     -2.09670313      0.604289092      -104.28559
                     0.604289527     -104.328692      0.208200358     -2.09670314      0.392601224     -61.5737004      0.461475346     -154.740883
                     0.208545081      -2.1062393      0.604289092      -104.28559      0.461475347     -154.740883      0.392101459     -61.5093436
143                  0.316569722     -70.8879534      0.340082344      146.285032      0.604078164     -104.447365      0.208074689     -2.13744395
                     0.340082343      146.285032      0.316801216     -70.9693847      0.207731106     -2.12790772      0.604078581     -104.404224
                     0.604078164     -104.447365      0.207731105     -2.12790772      0.392797444     -61.6716315      0.461115065     -154.891247
                     0.208074689     -2.13744387      0.604078581     -104.404223      0.461115066     -154.891247      0.392297342     -61.6070135
143.14               0.316198294     -70.9430035      0.340427989       146.10309      0.603865228     -104.565719      0.207607352     -2.16850443
                     0.340427988       146.10309      0.316429264     -71.0245172      0.207264901     -2.15896831      0.603866495     -104.522537
                     0.603865228     -104.565719        0.2072649     -2.15896832      0.392992369     -61.7694685      0.460756437     -155.041487
                     0.207607352     -2.16850435      0.603866495     -104.522537      0.460756438     -155.041487      0.392491936     -61.7045895
143.28                0.31582802     -70.9978437      0.340774466       145.92179      0.603650735     -104.683753      0.207143042     -2.19942201
                     0.340774464       145.92179      0.316058467     -71.0794395      0.206801713     -2.18988613      0.603652851     -104.640532
                     0.603650735     -104.683753      0.206801712     -2.18988614      0.393185999      -61.867211      0.460399459     -155.191604
                     0.207143042     -2.19942193      0.603652851     -104.640532      0.460399459     -155.191604      0.392685244     -61.8020712
143.42               0.315458895     -71.0524752      0.341121759      145.741131      0.603434704     -104.801468      0.206681729     -2.23019792
                     0.341121758      145.741131      0.315688821     -71.1341527      0.206341513     -2.22066239      0.603437668     -104.758209
                     0.603434704     -104.801468      0.206341513     -2.22066239      0.393378337     -61.9648586      0.460044127     -155.341596
                     0.206681729     -2.23019784      0.603437668     -104.758209      0.460044128     -155.341596      0.392877267     -61.8994582
143.56               0.315090915     -71.1068992      0.341469856       145.56111      0.603217153     -104.918865      0.206223385     -2.26083334
                     0.341469855       145.56111      0.315320323      -71.188658      0.205884274     -2.25129826      0.603220962     -104.875568
                     0.603217153     -104.918865      0.205884273     -2.25129826      0.393569385     -62.0624109      0.459690439     -155.491463
                     0.206223385     -2.26083326      0.603220962     -104.875568      0.459690439     -155.491463      0.393068008     -61.9967502
143.7                0.314724076     -71.1611165      0.341818744      145.381725      0.602998098     -105.035945      0.205767981     -2.29132944
                     0.341818743      145.381725      0.314952967     -71.2429564      0.205429966     -2.28179492      0.603002751     -104.992609
                     0.602998098     -105.035945      0.205429965     -2.28179492      0.393759144     -62.1598675       0.45933839     -155.641205
                     0.205767981     -2.29132936      0.603002751     -104.992609      0.459338391     -155.641205      0.393257467     -62.0939466
143.84               0.314358375     -71.2151285      0.342168409      145.202974      0.602777557     -105.152707      0.205315489     -2.32168738
                     0.342168408      145.202974       0.31458675     -71.2970491      0.204978562     -2.31215353      0.602783052     -105.109334
                     0.602777556     -105.152707      0.204978561     -2.31215354      0.393947617      -62.257228      0.458987978     -155.790822
                     0.205315489      -2.3216873      0.602783052     -105.109334      0.458987979     -155.790822      0.393445647     -62.1910472
143.98               0.313993806     -71.2689361      0.342518838      145.024854      0.602555546     -105.269153      0.204865882     -2.35190832
                     0.342518837      145.024854      0.314221668     -71.3509371      0.204530034     -2.34237524      0.602561883     -105.225742
                     0.602555546     -105.269153      0.204530033     -2.34237525      0.394134805      -62.354492      0.458639199     -155.940312
                     0.204865882     -2.35190824      0.602561883     -105.225742        0.4586392     -155.940312       0.39363255     -62.2880515
144.12               0.313630366     -71.3225404      0.342870019      144.847364      0.602332084     -105.385282      0.204419132     -2.38199339
                     0.342870017      144.847364      0.313857717     -71.4046215      0.204084355     -2.37246118       0.60233926     -105.341835
                     0.602332084     -105.385283      0.204084354     -2.37246119       0.39432071     -62.4516592       0.45829205     -156.089677
                     0.204419133     -2.38199331       0.60233926     -105.341835      0.458292051     -156.089677      0.393818178     -62.3849592
144.26               0.313268052     -71.3759425      0.343221937      144.670501      0.602107187     -105.501097      0.203975213      -2.4119437
                     0.343221936        144.6705      0.313494893     -71.4581033      0.203641497     -2.40241247        0.6021152     -105.457613
                     0.602107187     -105.501097      0.203641497     -2.40241247      0.394505335     -62.5487292      0.457946528     -156.238914
                     0.203975213     -2.41194362        0.6021152     -105.457613      0.457946529     -156.238914      0.394002532     -62.4817698
144.4                0.312906858     -71.4291435      0.343574581      144.494262      0.601880872     -105.616596      0.203534097     -2.44176036
                      0.34357458      144.494262      0.313133191     -71.5113838      0.203201436     -2.43223021       0.60188972     -105.573076
                     0.601880872     -105.616596      0.203201435     -2.43223021       0.39468868     -62.6457014       0.45760263     -156.388025
                     0.203534097     -2.44176028      0.601889721     -105.573076       0.45760263     -156.388025      0.394185615     -62.5784831
144.54               0.312546781     -71.4821444      0.343927938      144.318647      0.601653156     -105.731781      0.203095759     -2.47144447
                     0.343927937      144.318647      0.312772608     -71.5644637      0.202764144     -2.46191548      0.601662838     -105.688226
                     0.601653156     -105.731781      0.202764143     -2.46191549      0.394870749     -62.7425757      0.457260351     -156.537008
                     0.203095759     -2.47144439      0.601662838     -105.688226      0.457260351     -156.537008      0.394367429     -62.6750985
144.68               0.312187818     -71.5349463      0.344281995      144.143652      0.601424055     -105.846652      0.202660172      -2.5009971
                     0.344281994      144.143652      0.312413139     -71.6173444      0.202329595     -2.49146938      0.601434569     -105.803062
                     0.601424055     -105.846652      0.202329594     -2.49146939      0.395051543     -62.8393516      0.456919688     -156.685863
                     0.202660172     -2.50099702      0.601434569     -105.803062      0.456919689     -156.685863      0.394547975     -62.7716158
144.82               0.311829963     -71.5875502       0.34463674      143.969276      0.601193586      -105.96121       0.20222731     -2.53041933
                     0.344636738      143.969275      0.312054781     -71.6700267      0.201897764     -2.52089297      0.601204929     -105.917585
                     0.601193586      -105.96121      0.201897763     -2.52089297      0.395231064     -62.9360287      0.456580639      -156.83459
                     0.202227311     -2.53041925       0.60120493     -105.917585      0.456580639      -156.83459      0.394727256     -62.8680346
144.96               0.311473213     -71.6399571       0.34499216      143.795515      0.600961765     -106.075455       0.20179715      -2.5597122
                     0.344992159      143.795515       0.31169753     -71.7225118      0.201468625     -2.55018729      0.600973937     -106.031796
                     0.600961765     -106.075455      0.201468625      -2.5501873      0.395409315     -63.0326067      0.456243199     -156.983188
                      0.20179715     -2.55971212      0.600973937     -106.031796        0.4562432     -156.983188      0.394905274     -62.9643545
145.1                0.311117563     -71.6921682      0.345348243      143.622369      0.600728609     -106.189389      0.201369664     -2.58887676
                     0.345348242      143.622368      0.311341382     -71.7748006      0.201042155     -2.57935339      0.600741607     -106.145695
                     0.600728609     -106.189389      0.201042154      -2.5793534      0.395586297     -63.1290852      0.455907366     -157.131657
                     0.201369664     -2.58887668      0.600741607     -106.145695      0.455907367     -157.131657       0.39508203     -63.0605751
145.24               0.310763011     -71.7441843      0.345704978      143.449834      0.600494133     -106.303011       0.20094483     -2.61791404
                     0.345704977      143.449834      0.310986332     -71.8268943      0.200618327     -2.60839231      0.600507956     -106.259283
                     0.600494133     -106.303011      0.200618327     -2.60839231      0.395762013     -63.2254638      0.455573136     -157.279997
                      0.20094483     -2.61791396      0.600507957     -106.259283      0.455573136     -157.279997      0.395257528     -63.1566961
145.38               0.310409552     -71.7960065      0.346062352      143.277908      0.600258355     -106.416322      0.200522621     -2.64682505
                      0.34606235      143.277908      0.310632376     -71.8787937      0.200197118     -2.63730504      0.600273001     -106.372561
                     0.600258355     -106.416322      0.200197118     -2.63730505      0.395936464     -63.3217422      0.455240505     -157.428207
                     0.200522621     -2.64682497      0.600273001     -106.372561      0.455240505     -157.428207      0.395431768     -63.2527172
145.52               0.310057182     -71.8476359      0.346420353       143.10659       0.60002129     -106.529322      0.200103015     -2.67561081
                     0.346420351       143.10659      0.310279512     -71.9304999      0.199778504     -2.66609261      0.600036757     -106.485529
                      0.60002129     -106.529322      0.199778503     -2.66609261      0.396109654     -63.4179199       0.45490947     -157.576287
                     0.200103015     -2.67561073      0.600036757     -106.485529       0.45490947     -157.576287      0.395604754     -63.3486379
145.66               0.309705896     -71.8990733      0.346778969      142.935877      0.599782954     -106.642014      0.199685987      -2.7042723
                     0.346778968      142.935877      0.309927734      -71.982014      0.199362461     -2.69475599      0.599799239     -106.598188
                     0.599782954     -106.642014       0.19936246       -2.694756      0.396281584     -63.5139967      0.454580027     -157.724236
                     0.199685987     -2.70427222      0.599799239     -106.598187      0.454580028     -157.724236      0.395776488     -63.4444579
145.8                0.309355692       -71.95032      0.347138189      142.765767      0.599543363     -106.754396      0.199271514     -2.73281051
                     0.347138187      142.765766      0.309577039     -72.0333369      0.198948965     -2.72329618      0.599560465     -106.710538
                     0.599543363     -106.754396      0.198948964     -2.72329618      0.396452256     -63.6099722      0.454252174     -157.872055
                     0.199271514     -2.73281043      0.599560465     -106.710537      0.454252174     -157.872055      0.395946971     -63.5401768
145.94               0.309006565     -72.0013767      0.347498001      142.596257      0.599302532     -106.866469      0.198859573     -2.76122641
                     0.347497999      142.596257      0.309227423     -72.0844696      0.198537993     -2.75171414      0.599320449     -106.822579
                     0.599302532      -106.86647      0.198537993     -2.75171415      0.396621673     -63.7058461      0.453925906     -158.019742
                     0.198859573     -2.76122633      0.599320449     -106.822579      0.453925906     -158.019742      0.396116207     -63.6357944
146.08               0.308658511     -72.0522446      0.347858393      142.427345      0.599060478     -106.978235       0.19845014     -2.78952097
                     0.347858392      142.427345      0.308878882     -72.1354131      0.198129523     -2.78001084      0.599079207     -106.934314
                     0.599060478     -106.978235      0.198129523     -2.78001084      0.396789837     -63.8016179       0.45360122     -158.167298
                      0.19845014     -2.78952089      0.599079207     -106.934314       0.45360122     -158.167298      0.396284197     -63.7313102
146.22               0.308311527     -72.1029245      0.348219355      142.259029      0.598817215     -107.089694      0.198043193     -2.81769512
                     0.348219354      142.259029      0.308531412     -72.1861684      0.197723532     -2.80818721      0.598836755     -107.045742
                     0.598817215     -107.089694      0.197723532     -2.80818721       0.39695675     -63.8972874      0.453278113     -158.314722
                     0.198043193     -2.81769504      0.598836755     -107.045742      0.453278113     -158.314722      0.396450943      -63.826724
146.36               0.307965607     -72.1534175      0.348580875      142.091308      0.598572759     -107.200846      0.197638709     -2.84574981
                     0.348580873      142.091308      0.308185008     -72.2367365      0.197319997      -2.8362442      0.598593108     -107.156863
                     0.598572759     -107.200847      0.197319997      -2.8362442      0.397122415     -63.9928541       0.45295658     -158.462013
                      0.19763871     -2.84574973      0.598593108     -107.156863      0.452956581     -158.462013      0.396616448     -63.9220353
146.5                 0.30762075     -72.2037245      0.348942941      141.924177      0.598327126     -107.311693      0.197236667     -2.87368597
                      0.34894294      141.924177      0.307839668     -72.2871183      0.196918897     -2.86418273      0.598348281     -107.267679
                     0.598327126     -107.311693      0.196918897     -2.86418274      0.397286834     -64.0883179       0.45263662     -158.609172
                     0.197236667     -2.87368589      0.598348281     -107.267679       0.45263662     -158.609172      0.396780714     -64.0172439
146.64                0.30727695     -72.2538465      0.349305543      141.757636       0.59808033     -107.422234      0.196837044      -2.9015045
                     0.349305542      141.757636      0.307495388     -72.3373147      0.196520209     -2.89200373       0.59810229      -107.37819
                      0.59808033     -107.422234      0.196520209     -2.89200373      0.397450009     -64.1836782      0.452318227     -158.756197
                     0.196837045     -2.90150443       0.59810229      -107.37819      0.452318227     -158.756197      0.396943744     -64.1123494
146.78               0.306934203     -72.3037844       0.34966867      141.591683      0.597832386      -107.53247       0.19643982     -2.92920633
                     0.349668669      141.591683      0.307152162     -72.3873269      0.196123912     -2.91970808      0.597855149     -107.488397
                     0.597832386      -107.53247      0.196123912     -2.91970809      0.397611943     -64.2789349      0.452001399      -158.90309
                      0.19643982     -2.92920626      0.597855149     -107.488397      0.452001399      -158.90309      0.397105541     -64.2073515
146.92               0.306592507     -72.3535392      0.350032311      141.426314      0.597583311     -107.642403      0.196044971     -2.95679235
                     0.350032309      141.426314      0.306809989     -72.4371556      0.195729985      -2.9472967      0.597606874       -107.5983
                     0.597583311     -107.642403      0.195729985     -2.94729671      0.397772638     -64.3740875      0.451686131     -159.049848
                     0.196044971     -2.95679227      0.597606874       -107.5983      0.451686132     -159.049848      0.397266105     -64.3022498
147.06               0.306251856     -72.4031119      0.350396454      141.261527      0.597333118     -107.752032      0.195652478     -2.98426344
                     0.350396453      141.261527      0.306468863     -72.4868018      0.195338407     -2.97477046      0.597357479     -107.707901
                     0.597333118     -107.752032      0.195338406     -2.97477047      0.397932097     -64.4691357      0.451372421     -159.196472
                     0.195652478     -2.98426336      0.597357479       -107.7079      0.451372422     -159.196472       0.39742544     -64.3970441
147.2                0.305912248     -72.4525033       0.35076109      141.097321      0.597081822     -107.861358      0.195262319     -3.01162048
                     0.350761089      141.097321       0.30612878     -72.5362666      0.194949156     -3.00213025       0.59710698     -107.817198
                     0.597081822     -107.861358      0.194949156     -3.00213025      0.398090322     -64.5640792      0.451060264     -159.342962
                     0.195262319      -3.0116204       0.59710698     -107.817198      0.451060265     -159.342962      0.397583549      -64.491734
147.34               0.305573678     -72.5017144      0.351126208      140.933693      0.596829438     -107.970383      0.194874474     -3.03886433
                     0.351126207      140.933693      0.305789738     -72.5855507      0.194562213     -3.02937692       0.59685539     -107.926194
                     0.596829438     -107.970383      0.194562212     -3.02937692      0.398247315     -64.6589177      0.450749658     -159.489317
                     0.194874474     -3.03886425       0.59685539     -107.926194      0.450749659     -159.489317      0.397740433     -64.5863191
147.48               0.305236142     -72.5507462      0.351491797      140.770641      0.596575981     -108.079105      0.194488922     -3.06599586
                     0.351491796      140.770641      0.305451731     -72.6346552      0.194177556     -3.05651133      0.596602725     -108.034889
                     0.596575981     -108.079106      0.194177556     -3.05651133       0.39840308     -64.7536509      0.450440598     -159.635536
                     0.194488923     -3.06599578      0.596602725     -108.034889      0.450440599     -159.635536      0.397896096     -64.6807992
147.62               0.304899637     -72.5995995      0.351857847      140.608163      0.596321465     -108.187528      0.194105644     -3.09301591
                     0.351857845      140.608163      0.305114757     -72.6835809      0.193795167     -3.08353433      0.596348998     -108.143284
                     0.596321465     -108.187528      0.193795166     -3.08353433      0.398557618     -64.8482784      0.450133082      -159.78162
                     0.194105644     -3.09301583      0.596348998     -108.143284      0.450133082      -159.78162      0.398050539      -64.775174
147.76               0.304564159     -72.6482752      0.352224347      140.446256      0.596065904      -108.29565      0.193724619     -3.11992531
                     0.352224346      140.446256      0.304778812     -72.7323289      0.193415024     -3.11044675      0.596094225     -108.251379
                     0.596065904      -108.29565      0.193415024     -3.11044676      0.398710933        -64.9428      0.449827104     -159.927568
                     0.193724619     -3.11992524      0.596094225     -108.251379      0.449827105     -159.927568      0.398203766     -64.8694431
147.9                0.304229704     -72.6967743      0.352591288      140.284918      0.595809313     -108.403472      0.193345828     -3.14672491
                     0.352591287      140.284918      0.304443891     -72.7808999      0.193037109     -3.13724943      0.595838419     -108.359175
                     0.595809313     -108.403472      0.193037108     -3.13724944      0.398863026     -65.0372152      0.449522662      -160.07338
                     0.193345828     -3.14672483      0.595838419     -108.359175      0.449522663      -160.07338      0.398355779     -64.9636063
148.04               0.303896268     -72.7450976      0.352958659      140.124148      0.595551706     -108.510996       0.19296925     -3.17341551
                     0.352958658      140.124148      0.304109991     -72.8292948      0.192661402     -3.16394319      0.595581595     -108.466672
                     0.595551706     -108.510996      0.192661401     -3.16394319      0.399013901     -65.1315239      0.449219752     -160.219055
                     0.192969251     -3.17341543      0.595581595     -108.466672      0.449219753     -160.219055       0.39850658     -65.0576632
148.18               0.303563847     -72.7932462      0.353326451      139.963942      0.595293096     -108.618222      0.192594868     -3.19999793
                      0.35332645      139.963942      0.303777108     -72.8775147      0.192287883     -3.19052882      0.595323766     -108.573872
                     0.595293096     -108.618222      0.192287883     -3.19052883       0.39916356     -65.2257256      0.448918371     -160.364593
                     0.192594868     -3.19999785      0.595323766     -108.573872      0.448918372     -160.364593      0.398656172     -65.1516135
148.32               0.303232438     -72.8412207      0.353694653      139.804298      0.595033498     -108.725151      0.192222662     -3.22647297
                     0.353694652      139.804298      0.303445238     -72.9255603      0.191916535     -3.21700714      0.595064947     -108.680775
                     0.595033498     -108.725151      0.191916534     -3.21700714      0.399312005     -65.3198202      0.448618515     -160.509994
                     0.192222662      -3.2264729      0.595064947     -108.680775      0.448618515     -160.509994      0.398804558      -65.245457
148.46               0.302902037     -72.8890223      0.354063255      139.645215      0.594772926     -108.831782      0.191852612     -3.25284143
                     0.354063254      139.645215      0.303114378     -72.9734326      0.191547337     -3.24337893      0.594805151     -108.787381
                     0.594772926     -108.831783      0.191547337     -3.24337894       0.39945924     -65.4138073      0.448320179     -160.655257
                     0.191852613     -3.25284135      0.594805152     -108.787381       0.44832018     -160.655257       0.39895174     -65.3391933
148.6                 0.30257264     -72.9366516      0.354432249       139.48669      0.594511394     -108.938118      0.191484702     -3.27910408
                     0.354432247      139.486689      0.302784523     -73.0211325      0.191180272     -3.26964499      0.594544393     -108.893691
                     0.594511394     -108.938118      0.191180272     -3.26964499      0.399605266     -65.5076865      0.448023361     -160.800382
                     0.191484702     -3.27910401      0.594544393     -108.893691      0.448023362     -160.800382      0.399097721     -65.4328221
148.74               0.302244244     -72.9841096      0.354801623       139.32872      0.594248914     -109.044158      0.191118911     -3.30526172
                     0.354801622       139.32872      0.302455671     -73.0686608      0.190815322     -3.29580607      0.594282685     -108.999707
                     0.594248914     -109.044159      0.190815321     -3.29580608      0.399750088     -65.6014577      0.447728057     -160.945369
                     0.191118912     -3.30526164      0.594282686     -108.999707      0.447728058     -160.945369      0.399242504     -65.5263432
148.88               0.301916844     -73.0313972       0.35517137      139.171304      0.593985502     -109.149904      0.190755223     -3.33131509
                     0.355171368      139.171304      0.302127817     -73.1160183      0.190452468     -3.32186296      0.594020042     -109.105428
                     0.593985502     -109.149904      0.190452467     -3.32186297      0.399893707     -65.6951205      0.447434263     -161.090217
                     0.190755223     -3.33131501      0.594020042     -109.105428      0.447434264     -161.090217      0.399386091     -65.6197562
149.02               0.301590438     -73.0785152      0.355541478       139.01444      0.593721169     -109.255356      0.190393618     -3.35726496
                     0.355541477       139.01444      0.301800957      -73.163206      0.190091692     -3.34781641      0.593756477     -109.210855
                     0.593721169     -109.255356      0.190091691     -3.34781642      0.400036125     -65.7886746      0.447141975     -161.234926
                     0.190393619     -3.35726489      0.593756477     -109.210855      0.447141976     -161.234926      0.399528486     -65.7130609
149.16                0.30126502     -73.1254644       0.35591194      138.858125       0.59345593     -109.360514       0.19003408     -3.38311209
                     0.355911938      138.858125      0.301475089     -73.2102248      0.189732976     -3.37366717      0.593492002      -109.31599
                      0.59345593     -109.360514      0.189732976     -3.37366718      0.400177347     -65.8821197       0.44685119     -161.379496
                     0.190034081     -3.38311202      0.593492003      -109.31599      0.446851191     -161.379496       0.39966969      -65.806257
149.3                0.300940589     -73.1722458      0.356282745      138.702356      0.593189797      -109.46538      0.189676591     -3.40885722
                     0.356282743      138.702356      0.301150207     -73.2570753      0.189376304     -3.39941599      0.593226633     -109.420832
                     0.593189797      -109.46538      0.189376304     -3.39941599      0.400317375     -65.9754556      0.446561905     -161.523926
                     0.189676591     -3.40885715      0.593226633     -109.420832      0.446561905     -161.523925      0.399809706     -65.8993442
149.44               0.300617139     -73.2188602      0.356653884      138.547133      0.592922784     -109.569954      0.189321133     -3.43450108
                     0.356653883      138.547133      0.300826309     -73.3037586      0.189021658     -3.42506359       0.59296038     -109.525382
                     0.592922784     -109.569954      0.189021657      -3.4250636      0.400456211      -66.068682      0.446274114     -161.668215
                     0.189321133     -3.43450101       0.59296038     -109.525382      0.446274115     -161.668215      0.399948538     -65.9923222
149.58               0.300294667     -73.2653084      0.357025349      138.392452      0.592654904     -109.674236       0.18896769     -3.46004441
                     0.357025348      138.392452      0.300503391     -73.3502755       0.18866902     -3.45061071      0.592693258     -109.629642
                     0.592654904     -109.674236      0.188669019     -3.45061071      0.400593858     -66.1617986      0.445987815     -161.812365
                      0.18896769     -3.46004433      0.592693258     -109.629642      0.445987816     -161.812365      0.400086189     -66.0851908
149.72                0.29997317     -73.3115913       0.35739713      138.238312       0.59238617     -109.778228      0.188616243     -3.48548791
                     0.357397129      138.238311      0.300181449     -73.3966268      0.188318374     -3.47605806       0.59242528     -109.733611
                      0.59238617     -109.778228      0.188318373     -3.47605807      0.400730319     -66.2548051      0.445703004     -161.956373
                     0.188616243     -3.48548783       0.59242528     -109.733611      0.445703005     -161.956373       0.40022266     -66.1779497
149.86               0.299652644     -73.3577097      0.357769219      138.084709      0.592116595      -109.88193      0.188266777     -3.51083231
                     0.357769218      138.084709       0.29986048     -73.4428133      0.187969703     -3.50140636      0.592156458     -109.837291
                     0.592116595      -109.88193      0.187969703     -3.50140637      0.400865597     -66.3477013      0.445419677     -162.100241
                     0.188266778     -3.51083223      0.592156458     -109.837291      0.445419678     -162.100241      0.400357954     -66.2705986
150                  0.299333085     -73.4036643      0.358141606      137.931643      0.591846191     -109.985343      0.187919275      -3.5360783
                     0.358141605      137.931643      0.299540479     -73.4888358      0.187622991     -3.52665631      0.591886805     -109.940682
                     0.591846191     -109.985344       0.18762299     -3.52665631      0.400999695     -66.4404868      0.445137831     -162.243967
                     0.187919276     -3.53607823      0.591886805     -109.940682      0.445137831     -162.243967      0.400492076     -66.3631372
