! TOUCHSTONE file generated by CST MICROWAVE STUDIO
! Date and time: Mon Sep 14 08:19:51 2026
! Project name: inductor_td_1p.cst
! Header version: 2024
! Port assignment regex: !\s*Touchstone port\s*([0-9]+)\s*=\s*(CST MWS port|CST DES external port|CST DES block port)\s*(.+)\s* \(\"(.*)\"\)(\s*mode\s*([0-9]+))?.*
! Touchstone port assignment:
! Touchstone port 1 = CST MWS port 1 ("")
# GHz S MA R 50
10                     0.9690903        162.4058
10.19                  0.9689243        162.0775
10.38                  0.9687564        161.7496
10.57                  0.9685869        161.4221
10.76                  0.9684156        161.0948
10.95                  0.9682427        160.7679
11.14                  0.9680682        160.4413
11.33                  0.9678922         160.115
11.52                  0.9677148        159.7891
11.71                   0.967536        159.4636
11.9                   0.9673558        159.1383
12.09                  0.9671743        158.8134
12.28                  0.9669916        158.4889
12.47                  0.9668079        158.1647
12.66                   0.966623        157.8409
12.85                   0.966437        157.5175
13.04                    0.96625        157.1943
13.23                  0.9660622        156.8716
13.42                  0.9658735        156.5493
13.61                   0.965684        156.2273
13.8                   0.9654937        155.9056
13.99                  0.9653027        155.5844
14.18                  0.9651111        155.2635
14.37                  0.9649189         154.943
14.56                  0.9647262        154.6229
14.75                   0.964533        154.3032
14.94                  0.9643394        153.9838
15.13                  0.9641455        153.6649
15.32                  0.9639512        153.3463
15.51                  0.9637566        153.0281
15.7                    0.963562        152.7103
15.89                  0.9633671        152.3929
16.08                  0.9631721        152.0759
16.27                  0.9629771        151.7593
16.46                   0.962782        151.4431
16.65                  0.9625871        151.1273
16.84                  0.9623922        150.8119
17.03                  0.9621974        150.4969
17.22                  0.9620028        150.1822
17.41                  0.9618084         149.868
17.6                   0.9616144        149.5542
17.79                  0.9614207        149.2408
17.98                  0.9612272        148.9278
18.17                  0.9610342        148.6152
18.36                  0.9608417         148.303
18.55                  0.9606496        147.9912
18.74                  0.9604581        147.6799
18.93                  0.9602672        147.3689
19.12                  0.9600768        147.0583
19.31                  0.9598871        146.7482
19.5                   0.9596981        146.4384
19.69                  0.9595098        146.1291
19.88                  0.9593222        145.8202
20.07                  0.9591354        145.5117
20.26                  0.9589494        145.2036
20.45                  0.9587644        144.8959
20.64                  0.9585801        144.5886
20.83                  0.9583968        144.2818
21.02                  0.9582144        143.9753
21.21                  0.9580331        143.6693
21.4                   0.9578526        143.3636
21.59                  0.9576733        143.0584
21.78                  0.9574951        142.7536
21.97                  0.9573178        142.4492
22.16                  0.9571418        142.1453
22.35                  0.9569668        141.8417
22.54                   0.956793        141.5385
22.73                  0.9566204        141.2358
22.92                   0.956449        140.9335
23.11                  0.9562788        140.6316
23.3                   0.9561099          140.33
23.49                  0.9559423         140.029
23.68                  0.9557759        139.7283
23.87                  0.9556108         139.428
24.06                  0.9554471        139.1281
24.25                  0.9552849        138.8287
24.44                  0.9551238        138.5297
24.63                  0.9549642         138.231
24.82                   0.954806        137.9328
25.01                  0.9546492         137.635
25.2                   0.9544938        137.3376
25.39                  0.9543398        137.0406
25.58                  0.9541874        136.7441
25.77                  0.9540363        136.4479
25.96                  0.9538869        136.1521
26.15                  0.9537388        135.8568
26.34                  0.9535922        135.5618
26.53                  0.9534472        135.2673
26.72                  0.9533037        134.9731
26.91                  0.9531618        134.6794
27.1                   0.9530213        134.3861
27.29                  0.9528824        134.0931
27.48                  0.9527451        133.8006
27.67                  0.9526093        133.5085
27.86                  0.9524751        133.2168
28.05                  0.9523424        132.9255
28.24                  0.9522115        132.6346
28.43                   0.952082        132.3441
28.62                  0.9519541         132.054
28.81                  0.9518278        131.7643
29                      0.951703         131.475
29.19                    0.95158        131.1862
29.38                  0.9514585        130.8977
29.57                  0.9513387        130.6096
29.76                  0.9512203        130.3219
29.95                  0.9511037        130.0346
30.14                  0.9509886        129.7477
30.33                  0.9508751        129.4612
30.52                  0.9507633        129.1751
30.71                  0.9506531        128.8894
30.9                   0.9505444        128.6041
31.09                  0.9504374        128.3192
31.28                   0.950332        128.0347
31.47                  0.9502282        127.7506
31.66                   0.950126        127.4669
31.85                  0.9500254        127.1836
32.04                  0.9499264        126.9006
32.23                   0.949829        126.6181
32.42                  0.9497331         126.336
32.61                  0.9496389        126.0542
32.8                   0.9495463        125.7728
32.99                  0.9494552        125.4919
33.18                  0.9493657        125.2113
33.37                  0.9492778        124.9311
33.56                  0.9491914        124.6513
33.75                  0.9491067        124.3719
33.94                  0.9490234        124.0929
34.13                  0.9489417        123.8143
34.32                  0.9488617         123.536
34.51                   0.948783        123.2582
34.7                    0.948706        122.9807
34.89                  0.9486305        122.7037
35.08                  0.9485565         122.427
35.27                  0.9484839        122.1507
35.46                   0.948413        121.8748
35.65                  0.9483434        121.5993
35.84                  0.9482755        121.3241
36.03                  0.9482089        121.0494
36.22                  0.9481439         120.775
36.41                  0.9480804         120.501
36.6                   0.9480182        120.2274
36.79                  0.9479576        119.9542
36.98                  0.9478984        119.6814
37.17                  0.9478406        119.4089
37.36                  0.9477843        119.1369
37.55                  0.9477294        118.8652
37.74                  0.9476758        118.5939
37.93                  0.9476237         118.323
38.12                   0.947573        118.0524
38.31                  0.9475237        117.7823
38.5                   0.9474757        117.5125
38.69                  0.9474292        117.2431
38.88                  0.9473839        116.9741
39.07                  0.9473401        116.7054
39.26                  0.9472975        116.4372
39.45                  0.9472562        116.1693
39.64                  0.9472164        115.9018
39.83                  0.9471779        115.6347
40.02                  0.9471405        115.3679
40.21                  0.9471045        115.1015
40.4                   0.9470698        114.8356
40.59                  0.9470364        114.5699
40.78                  0.9470042        114.3047
40.97                  0.9469732        114.0398
41.16                  0.9469435        113.7753
41.35                  0.9469151        113.5112
41.54                  0.9468878        113.2475
41.73                  0.9468618        112.9841
41.92                  0.9468369        112.7211
42.11                  0.9468133        112.4585
42.3                   0.9467908        112.1963
42.49                  0.9467695        111.9344
42.68                  0.9467494        111.6729
42.87                  0.9467304        111.4118
43.06                  0.9467125         111.151
43.25                  0.9466957        110.8906
43.44                  0.9466801        110.6306
43.63                  0.9466656         110.371
43.82                  0.9466522        110.1117
44.01                  0.9466399        109.8528
44.2                   0.9466287        109.5943
44.39                  0.9466184        109.3361
44.58                  0.9466094        109.0783
44.77                  0.9466013        108.8209
44.96                  0.9465942        108.5639
45.15                  0.9465882        108.3072
45.34                  0.9465832        108.0509
45.53                  0.9465792         107.795
45.72                  0.9465761        107.5394
45.91                  0.9465742        107.2842
46.1                   0.9465731        107.0293
46.29                   0.946573        106.7749
46.48                  0.9465738        106.5208
46.67                  0.9465757         106.267
46.86                  0.9465784        106.0136
47.05                  0.9465821        105.7606
47.24                  0.9465866         105.508
47.43                  0.9465921        105.2557
47.62                  0.9465985        105.0038
47.81                  0.9466057        104.7523
48                     0.9466139        104.5011
48.19                  0.9466229        104.2503
48.38                  0.9466327        103.9998
48.57                  0.9466434        103.7497
48.76                  0.9466549           103.5
48.95                  0.9466673        103.2507
49.14                  0.9466805        103.0017
49.33                  0.9466944         102.753
49.52                  0.9467092        102.5047
49.71                  0.9467248        102.2568
49.9                   0.9467411        102.0093
50.09                  0.9467582        101.7621
50.28                  0.9467761        101.5153
50.47                  0.9467947        101.2688
50.66                  0.9468141        101.0227
50.85                  0.9468341        100.7769
51.04                   0.946855        100.5315
51.23                  0.9468765        100.2865
51.42                  0.9468987        100.0418
51.61                  0.9469216        99.79751
51.8                   0.9469453        99.55357
51.99                  0.9469696        99.30997
52.18                  0.9469945        99.06672
52.37                  0.9470201        98.82384
52.56                  0.9470463        98.58132
52.75                  0.9470733        98.33915
52.94                  0.9471008        98.09734
53.13                   0.947129        97.85588
53.32                  0.9471577        97.61478
53.51                  0.9471872        97.37404
53.7                   0.9472172        97.13365
53.89                  0.9472477        96.89362
54.08                  0.9472789        96.65393
54.27                  0.9473107         96.4146
54.46                   0.947343        96.17563
54.65                  0.9473759        95.93702
54.84                  0.9474094        95.69875
55.03                  0.9474433        95.46084
55.22                  0.9474779        95.22327
55.41                  0.9475129        94.98607
55.6                   0.9475485        94.74922
55.79                  0.9475845         94.5127
55.98                  0.9476212        94.27655
56.17                  0.9476582        94.04075
56.36                  0.9476959         93.8053
56.55                   0.947734        93.57019
56.74                  0.9477724        93.33544
56.93                  0.9478115        93.10104
57.12                   0.947851        92.86698
57.31                  0.9478909        92.63327
57.5                   0.9479313        92.39992
57.69                  0.9479721        92.16691
57.88                  0.9480134        91.93424
58.07                  0.9480551        91.70193
58.26                  0.9480973        91.46995
58.45                  0.9481397        91.23834
58.64                  0.9481827        91.00706
58.83                  0.9482261        90.77613
59.02                  0.9482698        90.54554
59.21                  0.9483139         90.3153
59.4                   0.9483584         90.0854
59.59                  0.9484033        89.85586
59.78                  0.9484485        89.62665
59.97                  0.9484942        89.39778
60.16                  0.9485402        89.16926
60.35                  0.9485865        88.94108
60.54                  0.9486332        88.71325
60.73                  0.9486802        88.48575
60.92                  0.9487276         88.2586
61.11                  0.9487752        88.03178
61.3                   0.9488232        87.80531
61.49                  0.9488716        87.57919
61.68                  0.9489202        87.35339
61.87                  0.9489691        87.12794
62.06                  0.9490183        86.90283
62.25                  0.9490679        86.67804
62.44                  0.9491177        86.45361
62.63                  0.9491678        86.22951
62.82                  0.9492182        86.00576
63.01                  0.9492689        85.78233
63.2                   0.9493198        85.55924
63.39                   0.949371        85.33649
63.58                  0.9494224        85.11407
63.77                  0.9494742          84.892
63.96                   0.949526        84.67025
64.15                  0.9495782        84.44883
64.34                  0.9496307        84.22776
64.53                  0.9496834        84.00702
64.72                  0.9497363        83.78661
64.91                  0.9497895        83.56653
65.1                   0.9498428        83.34678
65.29                  0.9498963        83.12737
65.48                  0.9499502        82.90829
65.67                  0.9500041        82.68954
65.86                  0.9500582        82.47111
66.05                  0.9501127        82.25303
66.24                  0.9501673        82.03526
66.43                  0.9502221        81.81783
66.62                  0.9502771        81.60073
66.81                  0.9503321        81.38396
67                     0.9503875         81.1675
67.19                   0.950443        80.95139
67.38                  0.9504987         80.7356
67.57                  0.9505545        80.52012
67.76                  0.9506104        80.30499
67.95                  0.9506666        80.09017
68.14                  0.9507229        79.87568
68.33                  0.9507794        79.66151
68.52                  0.9508361        79.44767
68.71                  0.9508928        79.23415
68.9                   0.9509497        79.02095
69.09                  0.9510067        78.80808
69.28                  0.9510639        78.59553
69.47                  0.9511212         78.3833
69.66                  0.9511787        78.17139
69.85                  0.9512362         77.9598
70.04                  0.9512939        77.74853
70.23                  0.9513517        77.53758
70.42                  0.9514096        77.32696
70.61                  0.9514677        77.11665
70.8                   0.9515258        76.90665
70.99                   0.951584        76.69697
71.18                  0.9516424        76.48763
71.37                  0.9517009        76.27858
71.56                  0.9517594        76.06985
71.75                   0.951818        75.86144
71.94                  0.9518768        75.65335
72.13                  0.9519356        75.44557
72.32                  0.9519946        75.23811
72.51                  0.9520536        75.03095
72.7                   0.9521127        74.82412
72.89                  0.9521719        74.61759
73.08                  0.9522311        74.41138
73.27                  0.9522904        74.20548
73.46                  0.9523498        73.99987
73.65                  0.9524092         73.7946
73.84                  0.9524688        73.58963
74.03                  0.9525284        73.38497
74.22                  0.9525881        73.18061
74.41                  0.9526478        72.97657
74.6                   0.9527077        72.77283
74.79                  0.9527675         72.5694
74.98                  0.9528274        72.36628
75.17                  0.9528874        72.16346
75.36                  0.9529474        71.96095
75.55                  0.9530074        71.75875
75.74                  0.9530675        71.55684
75.93                  0.9531277        71.35525
76.12                  0.9531879        71.15395
76.31                  0.9532481        70.95295
76.5                   0.9533084        70.75228
76.69                  0.9533687        70.55189
76.88                  0.9534291         70.3518
77.07                  0.9534895        70.15201
77.26                    0.95355        69.95253
77.45                  0.9536103        69.75334
77.64                  0.9536709        69.55446
77.83                  0.9537314        69.35587
78.02                   0.953792        69.15759
78.21                  0.9538525        68.95958
78.4                   0.9539132        68.76191
78.59                  0.9539738        68.56449
78.78                  0.9540344         68.3674
78.97                  0.9540951        68.17061
79.16                  0.9541558        67.97406
79.35                  0.9542165        67.77787
79.54                  0.9542772        67.58195
79.73                   0.954338        67.38628
79.92                  0.9543987        67.19094
80.11                  0.9544595        66.99592
80.3                   0.9545203        66.80115
80.49                  0.9545811        66.60668
80.68                  0.9546419        66.41251
80.87                  0.9547027        66.21862
81.06                  0.9547635        66.02502
81.25                  0.9548244         65.8317
81.44                  0.9548852        65.63868
81.63                   0.954946        65.44596
81.82                  0.9550069        65.25351
82.01                  0.9550678        65.06134
82.2                   0.9551286        64.86944
82.39                  0.9551895        64.67787
82.58                  0.9552503        64.48654
82.77                  0.9553112        64.29554
82.96                   0.955372        64.10478
83.15                  0.9554329        63.91433
83.34                  0.9554938        63.72415
83.53                  0.9555546        63.53425
83.72                  0.9556154        63.34464
83.91                  0.9556763        63.15531
84.1                   0.9557372        62.96625
84.29                   0.955798        62.77746
84.48                  0.9558589        62.58895
84.67                  0.9559196        62.40076
84.86                  0.9559804         62.2128
85.05                  0.9560413        62.02516
85.24                  0.9561021        61.83774
85.43                  0.9561628        61.65064
85.62                  0.9562236        61.46377
85.81                  0.9562844        61.27722
86                     0.9563452        61.09092
86.19                  0.9564059         60.9049
86.38                  0.9564666        60.71914
86.57                  0.9565274        60.53366
86.76                   0.956588        60.34848
86.95                  0.9566488        60.16355
87.14                  0.9567095        59.97886
87.33                  0.9567701        59.79447
87.52                  0.9568307        59.61034
87.71                  0.9568914        59.42648
87.9                    0.956952        59.24289
88.09                  0.9570127        59.05956
88.28                  0.9570732         58.8765
88.47                  0.9571338        58.69371
88.66                  0.9571944        58.51118
88.85                  0.9572549        58.32891
89.04                  0.9573154        58.14692
89.23                  0.9573759        57.96518
89.42                  0.9574364         57.7837
89.61                  0.9574969        57.60249
89.8                   0.9575574        57.42154
89.99                  0.9576178        57.24085
90.18                  0.9576782        57.06042
90.37                  0.9577386        56.88025
90.56                   0.957799        56.70034
90.75                  0.9578594        56.52068
90.94                  0.9579198        56.34128
91.13                    0.95798        56.16215
91.32                  0.9580404        55.98327
91.51                  0.9581007        55.80464
91.7                   0.9581609        55.62627
91.89                  0.9582212        55.44815
92.08                  0.9582814        55.27029
92.27                  0.9583416        55.09268
92.46                  0.9584018        54.91532
92.65                   0.958462        54.73822
92.84                  0.9585221        54.56136
93.03                  0.9585822        54.38476
93.22                  0.9586423        54.20841
93.41                  0.9587024        54.03231
93.6                   0.9587624        53.85646
93.79                  0.9588225        53.68085
93.98                  0.9588825        53.50549
94.17                  0.9589425        53.33039
94.36                  0.9590025        53.15552
94.55                  0.9590624        52.98091
94.74                  0.9591223        52.80653
94.93                  0.9591823        52.63241
95.12                  0.9592421        52.45853
95.31                   0.959302        52.28489
95.5                   0.9593618        52.11149
95.69                  0.9594216        51.93834
95.88                  0.9594814        51.76543
96.07                  0.9595412        51.59276
96.26                  0.9596009        51.42033
96.45                  0.9596606        51.24814
96.64                  0.9597204        51.07619
96.83                    0.95978        50.90447
97.02                  0.9598397          50.733
97.21                  0.9598993        50.56176
97.4                   0.9599589        50.39076
97.59                  0.9600185           50.22
97.78                  0.9600781        50.04947
97.97                  0.9601375        49.87918
98.16                  0.9601971        49.70912
98.35                  0.9602566        49.53929
98.54                  0.9603161         49.3697
98.73                  0.9603755        49.20034
98.92                  0.9604349        49.03122
99.11                  0.9604943        48.86232
99.3                   0.9605537        48.69365
99.49                   0.960613        48.52521
99.68                  0.9606723        48.35701
99.87                  0.9607316        48.18903
100.06                 0.9607909        48.02129
100.25                 0.9608501        47.85376
100.44                 0.9609094        47.68647
100.63                 0.9609686         47.5194
100.82                 0.9610277        47.35256
101.01                 0.9610869        47.18594
101.2                  0.9611459        47.01955
101.39                 0.9612051        46.85338
101.58                 0.9612642        46.68744
101.77                 0.9613232        46.52172
101.96                 0.9613822        46.35622
102.15                 0.9614411        46.19094
102.34                 0.9615001        46.02588
102.53                  0.961559        45.86105
102.72                 0.9616179        45.69643
102.91                 0.9616768        45.53204
103.1                  0.9617356        45.36786
103.29                 0.9617944         45.2039
103.48                 0.9618532        45.04015
103.67                  0.961912        44.87662
103.86                 0.9619707        44.71332
104.05                 0.9620294        44.55022
104.24                 0.9620881        44.38734
104.43                 0.9621468        44.22468
104.62                 0.9622053        44.06223
104.81                  0.962264        43.89999
105                    0.9623225        43.73797
105.19                  0.962381        43.57615
105.38                 0.9624396        43.41455
105.57                  0.962498        43.25317
105.76                 0.9625564        43.09198
105.95                 0.9626148        42.93101
106.14                 0.9626732        42.77025
106.33                 0.9627315         42.6097
106.52                 0.9627899        42.44936
106.71                 0.9628481        42.28923
106.9                  0.9629064        42.12929
107.09                 0.9629646        41.96957
107.28                 0.9630228        41.81005
107.47                 0.9630809        41.65074
107.66                  0.963139        41.49163
107.85                  0.963197        41.33273
108.04                 0.9632551        41.17403
108.23                 0.9633131        41.01553
108.42                 0.9633711        40.85724
108.61                  0.963429        40.69914
108.8                  0.9634869        40.54125
108.99                 0.9635448        40.38356
109.18                 0.9636026        40.22607
109.37                 0.9636603        40.06878
109.56                 0.9637181        39.91168
109.75                 0.9637758        39.75479
109.94                 0.9638335        39.59809
110.13                 0.9638911        39.44159
110.32                 0.9639487        39.28529
110.51                 0.9640063        39.12918
110.7                  0.9640638        38.97327
110.89                 0.9641212        38.81756
111.08                 0.9641786        38.66203
111.27                  0.964236        38.50671
111.46                 0.9642933        38.35157
111.65                 0.9643507        38.19662
111.84                 0.9644079        38.04188
112.03                 0.9644651        37.88732
112.22                 0.9645223        37.73296
112.41                 0.9645794        37.57878
112.6                  0.9646365        37.42479
112.79                 0.9646935          37.271
112.98                 0.9647504        37.11739
113.17                 0.9648074        36.96397
113.36                 0.9648644        36.81074
113.55                 0.9649212         36.6577
113.74                 0.9649779        36.50485
113.93                 0.9650347        36.35217
114.12                 0.9650914        36.19969
114.31                  0.965148        36.04739
114.5                  0.9652046        35.89528
114.69                 0.9652611        35.74335
114.88                 0.9653176        35.59161
115.07                  0.965374        35.44004
115.26                 0.9654304        35.28866
115.45                 0.9654866        35.13746
115.64                 0.9655429        34.98644
115.83                 0.9655991        34.83561
116.02                 0.9656552        34.68495
116.21                 0.9657113        34.53448
116.4                  0.9657674        34.38418
116.59                 0.9658234        34.23407
116.78                 0.9658793        34.08413
116.97                 0.9659351        33.93437
117.16                 0.9659909        33.78479
117.35                 0.9660466        33.63538
117.54                 0.9661023        33.48616
117.73                 0.9661579         33.3371
117.92                 0.9662135        33.18823
118.11                 0.9662689        33.03953
118.3                  0.9663244          32.891
118.49                 0.9663797        32.74265
118.68                  0.966435        32.59447
118.87                 0.9664902        32.44646
119.06                 0.9665453        32.29863
119.25                 0.9666004        32.15097
119.44                 0.9666553        32.00348
119.63                 0.9667103        31.85616
119.82                 0.9667652        31.70901
120.01                 0.9668199        31.56204
120.2                  0.9668746        31.41523
120.39                 0.9669293        31.26859
120.58                 0.9669839        31.12212
120.77                 0.9670384        30.97582
120.96                 0.9670928        30.82969
121.15                 0.9671472        30.68372
121.34                 0.9672014        30.53792
121.53                 0.9672556        30.39229
121.72                 0.9673097        30.24682
121.91                 0.9673637        30.10152
122.1                  0.9674176        29.95639
122.29                 0.9674715        29.81142
122.48                 0.9675253        29.66661
122.67                  0.967579        29.52196
122.86                 0.9676327        29.37748
123.05                 0.9676862        29.23317
123.24                 0.9677396        29.08901
123.43                 0.9677929        28.94502
123.62                 0.9678462        28.80119
123.81                 0.9678994        28.65751
124                    0.9679525          28.514
124.19                 0.9680055        28.37065
124.38                 0.9680584        28.22746
124.57                 0.9681113        28.08443
124.76                  0.968164        27.94156
124.95                 0.9682166        27.79885
125.14                 0.9682692        27.65629
125.33                 0.9683216        27.51389
125.52                 0.9683739        27.37165
125.71                 0.9684262        27.22957
125.9                  0.9684783        27.08764
126.09                 0.9685304        26.94587
126.28                 0.9685824        26.80425
126.47                 0.9686343        26.66279
126.66                 0.9686861        26.52148
126.85                 0.9687377        26.38032
127.04                 0.9687893        26.23933
127.23                 0.9688407        26.09848
127.42                 0.9688921        25.95779
127.61                 0.9689433        25.81725
127.8                  0.9689944        25.67686
127.99                 0.9690455        25.53662
128.18                 0.9690964        25.39654
128.37                 0.9691473         25.2566
128.56                  0.969198        25.11682
128.75                 0.9692486        24.97718
128.94                 0.9692991         24.8377
129.13                 0.9693495        24.69837
129.32                 0.9693997        24.55918
129.51                 0.9694499        24.42014
129.7                  0.9694999        24.28126
129.89                 0.9695499        24.14251
130.08                 0.9695997        24.00392
130.27                 0.9696494        23.86548
130.46                  0.969699        23.72718
130.65                 0.9697485        23.58902
130.84                 0.9697979        23.45101
131.03                 0.9698471        23.31315
131.22                 0.9698962        23.17544
131.41                 0.9699452        23.03786
131.6                  0.9699941        22.90044
131.79                 0.9700429        22.76315
131.98                 0.9700915          22.626
132.17                   0.97014        22.48902
132.36                 0.9701884        22.35217
132.55                 0.9702366        22.21545
132.74                 0.9702848        22.07888
132.93                 0.9703329        21.94244
133.12                 0.9703807        21.80619
133.31                 0.9704285        21.67005
133.5                  0.9704762        21.53402
133.69                 0.9705237        21.39815
133.88                 0.9705711        21.26245
134.07                 0.9706183        21.12686
134.26                 0.9706655        20.99143
134.45                 0.9707124        20.85611
134.64                 0.9707593        20.72095
134.83                 0.9708061        20.58592
135.02                 0.9708527        20.45103
135.21                 0.9708991        20.31629
135.4                  0.9709455        20.18167
135.59                 0.9709917         20.0472
135.78                 0.9710377        19.91286
135.97                 0.9710837        19.77865
136.16                 0.9711296        19.64459
136.35                 0.9711752        19.51066
136.54                 0.9712207        19.37686
136.73                  0.971266        19.24321
136.92                 0.9713114        19.10968
137.11                 0.9713565        18.97629
137.3                  0.9714015        18.84303
137.49                 0.9714464        18.70991
137.68                 0.9714911        18.57692
137.87                 0.9715356        18.44407
138.06                 0.9715801        18.31134
138.25                 0.9716243        18.17876
138.44                 0.9716685         18.0463
138.63                 0.9717126        17.91397
138.82                 0.9717564        17.78178
139.01                 0.9718002        17.64972
139.2                  0.9718438        17.51778
139.39                 0.9718872        17.38598
139.58                 0.9719305        17.25431
139.77                 0.9719737        17.12277
139.96                 0.9720167        16.99136
140.15                 0.9720596        16.86008
140.34                 0.9721024        16.72893
140.53                  0.972145        16.59791
140.72                 0.9721875        16.46702
140.91                 0.9722298        16.33625
141.1                   0.972272        16.20561
141.29                 0.9723141         16.0751
141.48                 0.9723559        15.94472
141.67                 0.9723977        15.81447
141.86                 0.9724393        15.68434
142.05                 0.9724808        15.55434
142.24                 0.9725221        15.42447
142.43                 0.9725632        15.29472
142.62                 0.9726043         15.1651
142.81                 0.9726452         15.0356
143                    0.9726859        14.90623
143.19                 0.9727265        14.77698
143.38                  0.972767        14.64786
143.57                 0.9728073        14.51886
143.76                 0.9728476        14.38999
143.95                 0.9728875        14.26124
144.14                 0.9729274        14.13262
144.33                 0.9729671        14.00411
144.52                 0.9730068        13.87574
144.71                 0.9730463        13.74748
144.9                  0.9730856        13.61935
145.09                 0.9731247        13.49134
145.28                 0.9731638        13.36345
145.47                 0.9732027        13.23568
145.66                 0.9732414        13.10803
145.85                 0.9732801        12.98051
146.04                 0.9733185         12.8531
146.23                 0.9733568        12.72582
146.42                  0.973395        12.59866
146.61                 0.9734331        12.47161
146.8                   0.973471        12.34469
146.99                 0.9735088        12.21789
147.18                 0.9735464         12.0912
147.37                 0.9735839        11.96464
147.56                 0.9736213        11.83819
147.75                 0.9736585        11.71187
147.94                 0.9736956        11.58566
148.13                 0.9737325        11.45957
148.32                 0.9737694        11.33359
148.51                  0.973806        11.20774
148.7                  0.9738426          11.082
148.89                  0.973879        10.95638
149.08                 0.9739152        10.83087
149.27                 0.9739513        10.70549
149.46                 0.9739874        10.58021
149.65                 0.9740232        10.45506
149.84                  0.974059        10.33002
150.03                 0.9740946        10.20509
150.22                 0.9741301        10.08029
150.41                 0.9741654        9.955592
150.6                  0.9742007        9.831013
150.79                 0.9742357        9.706547
150.98                 0.9742707        9.582197
151.17                 0.9743055        9.457961
151.36                 0.9743402        9.333837
151.55                 0.9743748        9.209829
151.74                 0.9744093        9.085933
151.93                 0.9744437         8.96215
152.12                 0.9744779        8.838479
152.31                 0.9745119        8.714922
152.5                  0.9745459        8.591477
152.69                 0.9745798        8.468143
152.88                 0.9746135        8.344921
153.07                 0.9746471        8.221811
153.26                 0.9746806        8.098811
153.45                  0.974714        7.975923
153.64                 0.9747472        7.853146
153.83                 0.9747804        7.730481
154.02                 0.9748134        7.607924
154.21                 0.9748463        7.485477
154.4                  0.9748791         7.36314
154.59                 0.9749118        7.240912
154.78                 0.9749444        7.118795
154.97                 0.9749768        6.996786
155.16                 0.9750092        6.874885
155.35                 0.9750415        6.753093
155.54                 0.9750737         6.63141
155.73                 0.9751057        6.509834
155.92                 0.9751376        6.388366
156.11                 0.9751695        6.267006
156.3                  0.9752012        6.145753
156.49                 0.9752328        6.024607
156.68                 0.9752644        5.903567
156.87                 0.9752958        5.782634
157.06                 0.9753271        5.661808
157.25                 0.9753584        5.541086
157.44                 0.9753895        5.420472
157.63                 0.9754206        5.299962
157.82                 0.9754515        5.179558
158.01                 0.9754824        5.059259
158.2                  0.9755131        4.939064
158.39                 0.9755438        4.818973
158.58                 0.9755744        4.698987
158.77                 0.9756049        4.579105
158.96                 0.9756354        4.459327
159.15                 0.9756657        4.339651
159.34                  0.975696        4.220079
159.53                 0.9757262         4.10061
159.72                 0.9757563        3.981243
159.91                 0.9757862        3.861979
160.1                  0.9758162        3.742817
160.29                 0.9758461        3.623756
160.48                 0.9758758        3.504798
160.67                 0.9759056        3.385941
160.86                 0.9759352        3.267184
161.05                 0.9759647        3.148529
161.24                 0.9759942        3.029974
161.43                 0.9760236        2.911519
161.62                  0.976053        2.793164
161.81                 0.9760823        2.674909
162                    0.9761115        2.556753
162.19                 0.9761407        2.438697
162.38                 0.9761697        2.320739
162.57                 0.9761988         2.20288
162.76                 0.9762277         2.08512
162.95                 0.9762567        1.967457
163.14                 0.9762854        1.849893
163.33                 0.9763143        1.732426
163.52                  0.976343        1.615056
163.71                 0.9763717        1.497783
163.9                  0.9764003        1.380607
164.09                 0.9764289        1.263527
164.28                 0.9764574        1.146544
164.47                 0.9764859        1.029656
164.66                 0.9765143       0.9128638
164.85                 0.9765426       0.7961671
165.04                  0.976571       0.6795654
165.23                 0.9765993       0.5630585
165.42                 0.9766275        0.446646
165.61                 0.9766557       0.3303278
165.8                  0.9766839       0.2141035
165.99                  0.976712      0.09797273
166.18                 0.9767401     -0.01806465
166.37                 0.9767681       -0.134009
166.56                 0.9767961      -0.2498606
166.75                 0.9768241      -0.3656196
166.94                  0.976852      -0.4812866
167.13                 0.9768799      -0.5968616
167.32                 0.9769078      -0.7123451
167.51                 0.9769355      -0.8277372
167.7                  0.9769634      -0.9430382
167.89                 0.9769912       -1.058249
168.08                 0.9770189       -1.173368
168.27                 0.9770466       -1.288398
168.46                 0.9770743       -1.403338
168.65                  0.977102       -1.518189
168.84                 0.9771296        -1.63295
169.03                 0.9771572       -1.747622
169.22                 0.9771847       -1.862206
169.41                 0.9772124       -1.976701
169.6                  0.9772399       -2.091109
169.79                 0.9772674       -2.205428
169.98                 0.9772949        -2.31966
170.17                 0.9773224       -2.433805
170.36                 0.9773499       -2.547863
170.55                 0.9773774       -2.661834
170.74                 0.9774048        -2.77572
170.93                 0.9774321        -2.88952
171.12                 0.9774596       -3.003234
171.31                  0.977487       -3.116862
171.5                  0.9775144       -3.230406
171.69                 0.9775417       -3.343865
171.88                 0.9775691       -3.457239
172.07                 0.9775964       -3.570529
172.26                 0.9776238       -3.683737
172.45                 0.9776511        -3.79686
172.64                 0.9776784         -3.9099
172.83                 0.9777057       -4.022857
173.02                 0.9777329       -4.135732
173.21                 0.9777602       -4.248525
173.4                  0.9777874       -4.361236
173.59                 0.9778147       -4.473866
173.78                 0.9778419       -4.586414
173.97                 0.9778692        -4.69888
174.16                 0.9778964       -4.811267
174.35                 0.9779236       -4.923573
174.54                 0.9779509       -5.035799
174.73                  0.977978       -5.147946
174.92                 0.9780052       -5.260013
175.11                 0.9780324       -5.372002
175.3                  0.9780596       -5.483911
175.49                 0.9780868       -5.595742
175.68                 0.9781139       -5.707495
175.87                 0.9781411       -5.819171
176.06                 0.9781682       -5.930768
176.25                 0.9781954       -6.042289
176.44                 0.9782225       -6.153733
176.63                 0.9782496         -6.2651
176.82                 0.9782767       -6.376392
177.01                 0.9783038       -6.487607
177.2                  0.9783309       -6.598747
177.39                  0.978358       -6.709812
177.58                 0.9783851       -6.820801
177.77                 0.9784121       -6.931717
177.96                 0.9784391       -7.042557
178.15                 0.9784662       -7.153324
178.34                 0.9784932       -7.264017
178.53                 0.9785202       -7.374637
178.72                 0.9785471       -7.485184
178.91                 0.9785741       -7.595659
179.1                  0.9786011       -7.706061
179.29                  0.978628       -7.816391
179.48                  0.978655       -7.926648
179.67                 0.9786819       -8.036834
179.86                 0.9787087        -8.14695
180.05                 0.9787355       -8.256994
180.24                 0.9787624       -8.366968
180.43                 0.9787892       -8.476873
180.62                  0.978816       -8.586706
180.81                 0.9788428        -8.69647
181                    0.9788695       -8.806164
181.19                 0.9788961       -8.915791
181.38                 0.9789228       -9.025348
181.57                 0.9789494       -9.134838
181.76                  0.978976       -9.244258
181.95                 0.9790026       -9.353611
182.14                 0.9790291       -9.462897
182.33                 0.9790556       -9.572114
182.52                  0.979082       -9.681266
182.71                 0.9791085        -9.79035
182.9                  0.9791349       -9.899368
183.09                 0.9791611       -10.00832
183.28                 0.9791874       -10.11721
183.47                 0.9792137       -10.22603
183.66                 0.9792398       -10.33478
183.85                 0.9792659       -10.44349
184.04                  0.979292       -10.55209
184.23                  0.979318       -10.66069
184.42                 0.9793439       -10.76918
184.61                 0.9793698       -10.87759
184.8                  0.9793956       -10.98597
184.99                 0.9794213       -11.09427
185.18                  0.979447       -11.20251
185.37                 0.9794726        -11.3107
185.56                 0.9794981       -11.41882
185.75                 0.9795236       -11.52687
185.94                 0.9795489       -11.63487
186.13                 0.9795742        -11.7428
186.32                 0.9795994       -11.85067
186.51                 0.9796245       -11.95848
186.7                  0.9796494       -12.06623
186.89                 0.9796744       -12.17392
187.08                 0.9796992       -12.28155
187.27                  0.979724       -12.38912
187.46                 0.9797485       -12.49662
187.65                 0.9797731       -12.60407
187.84                 0.9797975       -12.71146
188.03                 0.9798218       -12.81879
188.22                 0.9798459       -12.92606
188.41                   0.97987       -13.03327
188.6                  0.9798939       -13.14042
188.79                 0.9799178       -13.24752
188.98                 0.9799414       -13.35455
189.17                  0.979965       -13.46153
189.36                 0.9799884       -13.56845
189.55                 0.9800117       -13.67531
189.74                 0.9800348       -13.78211
189.93                 0.9800578       -13.88886
190.12                 0.9800807       -13.99555
190.31                 0.9801034       -14.10218
190.5                  0.9801259       -14.20876
190.69                 0.9801482       -14.31528
190.88                 0.9801705       -14.42174
191.07                 0.9801925       -14.52815
191.26                 0.9802144        -14.6345
191.45                  0.980236       -14.74079
191.64                 0.9802576       -14.84703
191.83                 0.9802789       -14.95321
192.02                 0.9803001       -15.05934
192.21                  0.980321       -15.16541
192.4                  0.9803417       -15.27142
192.59                 0.9803623       -15.37738
192.78                 0.9803826       -15.48329
192.97                 0.9804028       -15.58914
193.16                 0.9804228       -15.69493
193.35                 0.9804424       -15.80068
193.54                  0.980462       -15.90636
193.73                 0.9804813       -16.01199
193.92                 0.9805003       -16.11757
194.11                 0.9805192       -16.22309
194.3                  0.9805378       -16.32856
194.49                 0.9805561       -16.43397
194.68                 0.9805742       -16.53933
194.87                 0.9805921       -16.64463
195.06                 0.9806097       -16.74988
195.25                  0.980627       -16.85508
195.44                 0.9806441       -16.96022
195.63                  0.980661       -17.06531
195.82                 0.9806775       -17.17035
196.01                 0.9806938       -17.27533
196.2                  0.9807098       -17.38025
196.39                 0.9807255       -17.48512
196.58                  0.980741       -17.58994
196.77                 0.9807561        -17.6947
196.96                  0.980771       -17.79941
197.15                 0.9807855       -17.90406
197.34                 0.9807998       -18.00867
197.53                 0.9808138       -18.11321
197.72                 0.9808274       -18.21771
197.91                 0.9808408       -18.32214
198.1                  0.9808538       -18.42653
198.29                 0.9808665       -18.53086
198.48                 0.9808788       -18.63513
198.67                 0.9808909       -18.73935
198.86                 0.9809026       -18.84352
199.05                  0.980914       -18.94763
199.24                  0.980925       -19.05169
199.43                 0.9809357       -19.15569
199.62                 0.9809461       -19.25964
199.81                  0.980956       -19.36353
200                    0.9809656       -19.46737
