! TOUCHSTONE file generated by CST MICROWAVE STUDIO
! Date and time: Tue Sep 15 12:52:05 2026
! Project name: inductor_fd_1p.cst
! Header version: 2024
! Port assignment regex: !\s*Touchstone port\s*([0-9]+)\s*=\s*(CST MWS port|CST DES external port|CST DES block port)\s*(.+)\s* \(\"(.*)\"\)(\s*mode\s*([0-9]+))?.*
! Touchstone port assignment:
! Touchstone port 1 = CST MWS port 1 ("")
# GHz S MA R 50
10                   0.963691873      161.416767
10.19                0.963391898      161.090198
10.38                0.963094287      160.763886
10.57                0.962799035      160.437833
10.76                0.962506139      160.112041
10.95                0.962215594      159.786513
11.14                0.961927397      159.461251
11.33                0.961641542      159.136258
11.52                0.961358025      158.811535
11.71                0.961076842      158.487086
11.9                 0.960797988      158.162913
12.09                0.960521458      157.839018
12.28                0.960247247      157.515402
12.47                 0.95997535       157.19207
12.66                0.959705763      156.869022
12.85                0.959438478      156.546261
13.04                0.959173493       156.22379
13.23                  0.9589108       155.90161
13.42                0.958650395      155.579724
13.61                0.958392271      155.258134
13.8                 0.958136424      154.936842
13.99                0.957882847       154.61585
14.18                0.957631535      154.295161
14.37                 0.95738248      153.974776
14.56                0.957135679      153.654698
14.75                0.956891123      153.334929
14.94                0.956648807      153.015471
15.13                0.956408725      152.696325
15.32                 0.95617087      152.377494
15.51                0.955935235       152.05898
15.7                 0.955701815      151.740785
15.89                0.955470602      151.422911
16.08                0.955241589       151.10536
16.27                 0.95501477      150.788133
16.46                0.954790138      150.471233
16.65                0.954567686      150.154662
16.84                0.954347407      149.838421
17.03                0.954129293      149.522513
17.22                0.953913337      149.206939
17.41                0.953699533        148.8917
17.6                 0.953487872        148.5768
17.79                0.953278348      148.262239
17.98                0.953070952       147.94802
18.17                0.952865678      147.634144
18.36                0.952662518      147.320613
18.55                0.952461463      147.007429
18.74                0.952262506      146.694593
18.93                 0.95206564      146.382107
19.12                0.951870856      146.069973
19.31                0.951678147      145.758192
19.5                 0.951487504      145.446766
19.69                 0.95129892      145.135697
19.88                0.951112386      144.824987
20.07                0.950927894      144.514636
20.26                0.950745436      144.204646
20.45                0.950565004      143.895019
20.64                0.950386589      143.585757
20.83                0.950210183      143.276861
21.02                0.950035778      142.968332
21.21                0.949863364      142.660172
21.4                 0.949692934      142.352382
21.59                0.949524479      142.044964
21.78                 0.94935799       141.73792
21.97                0.949193459       141.43125
22.16                0.949030877      141.124956
22.35                0.948870235      140.819039
22.54                0.948711524      140.513501
22.73                0.948554736      140.208343
22.92                0.948399861      139.903567
23.11                0.948246892      139.599173
23.3                 0.948095818      139.295163
23.49                0.947946631      138.991538
23.68                0.947799322      138.688299
23.87                0.947653882      138.385448
24.06                0.947510302      138.082986
24.25                0.947368573      137.780913
24.44                0.947228685      137.479232
24.63                0.947090629      137.177943
24.82                0.946954397      136.877048
25.01                0.946819979      136.576547
25.2                 0.946687365      136.276441
25.39                0.946556547      135.976733
25.58                0.946427516      135.677422
25.77                0.946300261      135.378509
25.96                0.946174774      135.079997
26.15                0.946051045      134.781885
26.34                0.945929065      134.484175
26.53                0.945808825      134.186868
26.72                0.945690315      133.889965
26.91                0.945573525      133.593466
27.1                 0.945458447      133.297373
27.29                0.945345071      133.001686
27.48                0.945233387      132.706407
27.67                0.945123387      132.411536
27.86                0.945015059      132.117074
28.05                0.944908396      131.823021
28.24                0.944803387       131.52938
28.43                0.944700023       131.23615
28.62                0.944598295      130.943333
28.81                0.944498193      130.650928
29                   0.944399707      130.358937
29.19                0.944302828      130.067361
29.38                0.944207547      129.776201
29.57                0.944113853      129.485456
29.76                0.944021738      129.195128
29.95                0.943931192      128.905217
30.14                0.943842204      128.615724
30.33                0.943754767       128.32665
30.52                 0.94366887      128.037995
30.71                0.943584503      127.749761
30.9                 0.943501657      127.461946
31.09                0.943420324      127.174553
31.28                0.943340492      126.887581
31.47                0.943262152      126.601032
31.66                0.943185296      126.314905
31.85                0.943109914      126.029201
32.04                0.943035995      125.743921
32.23                0.942963531      125.459066
32.42                0.942892512      125.174635
32.61                0.942822929      124.890629
32.8                 0.942754771      124.607049
32.99                0.942688031      124.323895
33.18                0.942622698      124.041167
33.37                0.942558762      123.758866
33.56                0.942496215      123.476992
33.75                0.942435047      123.195546
33.94                0.942375249      122.914528
34.13                0.942316811      122.633938
34.32                0.942259724      122.353776
34.51                0.942203979      122.074044
34.7                 0.942149565      121.794741
34.89                0.942096475      121.515867
35.08                0.942044699      121.237423
35.27                0.941994227       120.95941
35.46                 0.94194505      120.681826
35.65                0.941897159      120.404673
35.84                0.941850544      120.127951
36.03                0.941805198      119.851659
36.22                 0.94176111      119.575799
36.41                0.941718271       119.30037
36.6                 0.941676672      119.025373
36.79                0.941636304      118.750807
36.98                0.941597158      118.476673
37.17                0.941559225      118.202971
37.36                0.941522496      117.929702
37.55                0.941486962      117.656864
37.74                0.941452614      117.384458
37.93                0.941419443      117.112485
38.12                0.941387439      116.840944
38.31                0.941356595      116.569836
38.5                 0.941326902       116.29916
38.69                 0.94129835      116.028916
38.88                 0.94127093      115.759106
39.07                0.941244634      115.489727
39.26                0.941219454      115.220782
39.45                0.941195379      114.952268
39.64                0.941172403      114.684188
39.83                0.941150515       114.41654
40.02                0.941129708      114.149324
40.21                0.941109973      113.882541
40.4                 0.941091301      113.616189
40.59                0.941073683      113.350271
40.78                0.941057112      113.084784
40.97                0.941041579      112.819729
41.16                0.941027074      112.555107
41.35                0.941013591      112.290916
41.54                 0.94100112      112.027157
41.73                0.940989653      111.763829
41.92                0.940979181      111.500933
42.11                0.940969698      111.238468
42.3                 0.940961193      110.976434
42.49                 0.94095366       110.71483
42.68                0.940947089      110.453658
42.87                0.940941473      110.192916
43.06                0.940936804      109.932604
43.25                0.940933073      109.672723
43.44                0.940930273      109.413271
43.63                0.940928396      109.154249
43.82                0.940927433      108.895656
44.01                0.940927376      108.637492
44.2                 0.940928218      108.379757
44.39                0.940929951       108.12245
44.58                0.940932568      107.865572
44.77                0.940936059      107.609122
44.96                0.940940418        107.3531
45.15                0.940945637      107.097504
45.34                0.940951708      106.842336
45.53                0.940958623      106.587595
45.72                0.940966376       106.33328
45.91                0.940974958      106.079391
46.1                 0.940984361      105.825927
46.29                0.940994579      105.572889
46.48                0.941005604      105.320276
46.67                0.941017429      105.068088
46.86                0.941030045      104.816324
47.05                0.941043447      104.564983
47.24                0.941057626      104.314066
47.43                0.941072575      104.063572
47.62                0.941088287      103.813501
47.81                0.941104756      103.563852
48                   0.941121973      103.314625
48.19                0.941139932      103.065819
48.38                0.941158625      102.817434
48.57                0.941178046      102.569469
48.76                0.941198188      102.321924
48.95                0.941219043      102.074799
49.14                0.941240605      101.828093
49.33                0.941262867      101.581806
49.52                0.941285822      101.335937
49.71                0.941309464      101.090485
49.9                 0.941333785      100.845451
50.09                0.941358779      100.600833
50.28                 0.94138444      100.356631
50.47                 0.94141076      100.112845
50.66                0.941437733      99.8694744
50.85                0.941465352      99.6265182
51.04                0.941493612       99.383976
51.23                0.941522505      99.1418474
51.42                0.941552025      98.9001318
51.61                0.941582166      98.6588286
51.8                 0.941612922      98.4179373
51.99                0.941644285      98.1774575
52.18                 0.94167625      97.9373884
52.37                0.941708811      97.6977295
52.56                0.941741962      97.4584803
52.75                0.941775695      97.2196402
52.94                0.941810006      96.9812086
53.13                0.941844888      96.7431849
53.32                0.941880335      96.5055685
53.51                0.941916341      96.2683589
53.7                   0.9419529      96.0315553
53.89                0.941990006      95.7951574
54.08                0.942027653      95.5591643
54.27                0.942065837      95.3235755
54.46                0.942104549      95.0883904
54.65                0.942143786      94.8536084
54.84                0.942183541      94.6192288
55.03                0.942223809       94.385251
55.22                0.942264583      94.1516744
55.41                0.942305859      93.9184983
55.6                  0.94234763      93.6857221
55.79                0.942389892      93.4533451
55.98                0.942432639      93.2213667
56.17                0.942475864      92.9897862
56.36                0.942519564       92.758603
56.55                0.942563732      92.5278164
56.74                0.942608364      92.2974258
56.93                0.942653453      92.0674304
57.12                0.942698995      91.8378296
57.31                0.942744984      91.6086227
57.5                 0.942791415      91.3798091
57.69                0.942838284       91.151388
57.88                0.942885584      90.9233588
58.07                0.942933312      90.6957207
58.26                0.942981461      90.4684731
58.45                0.943030027      90.2416154
58.64                0.943079005      90.0151467
58.83                 0.94312839      89.7890664
59.02                0.943178177      89.5633738
59.21                0.943228361      89.3380681
59.4                 0.943278938      89.1131487
59.59                0.943329902      88.8886149
59.78                0.943381249      88.6644659
59.97                0.943432974       88.440701
60.16                0.943485073      88.2173194
60.35                0.943537541      87.9943206
60.54                0.943590373      87.7717037
60.73                0.943643564       87.549468
60.92                0.943697111      87.3276128
61.11                0.943751009      87.1061373
61.3                 0.943805252      86.8850409
61.49                0.943859838      86.6643227
61.68                0.943914761      86.4439821
61.87                0.943970016      86.2240182
62.06                0.944025601      86.0044304
62.25                 0.94408151      85.7852179
62.44                0.944137739        85.56638
62.63                0.944194284      85.3479158
62.82                0.944251141      85.1298247
63.01                0.944308306      84.9121059
63.2                 0.944365774      84.6947587
63.39                0.944423541      84.4777822
63.58                0.944481604      84.2611758
63.77                0.944539958      84.0449386
63.96                0.944598599      83.8290699
64.15                0.944657524       83.613569
64.34                0.944716728      83.3984351
64.53                0.944776208      83.1836674
64.72                 0.94483596      82.9692651
64.91                0.944895979      82.7552275
65.1                 0.944956262      82.5415538
65.29                0.945016806      82.3282432
65.48                0.945077607       82.115295
65.67                 0.94513866      81.9027084
65.86                0.945199962      81.6904826
66.05                 0.94526151      81.4786169
66.24                  0.9453233      81.2671104
66.43                0.945385328      81.0559624
66.62                0.945447592      80.8451721
66.81                0.945510086      80.6347387
67                   0.945572808      80.4246615
67.19                0.945635755      80.2149396
67.38                0.945698923      80.0055723
67.57                0.945762308      79.7965589
67.76                0.945825907      79.5878984
67.95                0.945889717      79.3795902
68.14                0.945953735      79.1716334
68.33                0.946017957      78.9640272
68.52                 0.94608238       78.756771
68.71                0.946147001      78.5498638
68.9                 0.946211816      78.3433049
69.09                0.946276823      78.1370936
69.28                0.946342018      77.9312289
69.47                0.946407398      77.7257102
69.66                 0.94647296      77.5205367
69.85                0.946538701      77.3157075
70.04                0.946604618      77.1112219
70.23                0.946670708       76.907079
70.42                0.946736968      76.7032781
70.61                0.946803395      76.4998185
70.8                 0.946869987      76.2966992
70.99                0.946936739      76.0939196
71.18                 0.94700365      75.8914787
71.37                0.947070717      75.6893759
71.56                0.947137936      75.4876104
71.75                0.947205305      75.2861813
71.94                0.947272821      75.0850879
72.13                0.947340482      74.8843293
72.32                0.947408284      74.6839048
72.51                0.947476226      74.4838136
72.7                 0.947544303      74.2840549
72.89                0.947612515      74.0846279
73.08                0.947680857      73.8855318
73.27                0.947749328      73.6867658
73.46                0.947817925      73.4883291
73.65                0.947886646       73.290221
73.84                0.947955487      73.0924407
74.03                0.948024446      72.8949873
74.22                0.948093522      72.6978601
74.41                0.948162711      72.5010583
74.6                 0.948232011      72.3045811
74.79                 0.94830142      72.1084276
74.98                0.948370935      71.9125972
75.17                0.948440553      71.7170891
75.36                0.948510274      71.5219024
75.55                0.948580094      71.3270363
75.74                 0.94865001      71.1324901
75.93                0.948720022       70.938263
76.12                0.948790126      70.7443542
76.31                 0.94886032      70.5507629
76.5                 0.948930602      70.3574884
76.69                 0.94900097      70.1645298
76.88                0.949071422      69.9718863
77.07                0.949141955      69.7795573
77.26                0.949212568      69.5875419
77.45                0.949283258      69.3958392
77.64                0.949354024      69.2044487
77.83                0.949424863      69.0133694
78.02                0.949495773      68.8226005
78.21                0.949566752      68.6321414
78.4                 0.949637798      68.4419912
78.59                 0.94970891      68.2521492
78.78                0.949780085      68.0626145
78.97                0.949851322      67.8733865
79.16                0.949922617      67.6844643
79.35                0.949993971      67.4958471
79.54                 0.95006538      67.3075342
79.73                0.950136843      67.1195248
79.92                0.950208358      66.9318182
80.11                0.950279923      66.7444135
80.3                 0.950351537      66.5573101
80.49                0.950423197      66.3705071
80.68                0.950494902      66.1840037
80.87                 0.95056665      65.9977993
81.06                0.950638439      65.8118929
81.25                0.950710268       65.626284
81.44                0.950782135      65.4409717
81.63                0.950854039      65.2559552
81.82                0.950925977      65.0712338
82.01                0.950997948      64.8868067
82.2                  0.95106995      64.7026732
82.39                0.951141982      64.5188325
82.58                0.951214043      64.3352839
82.77                 0.95128613      64.1520265
82.96                0.951358242      63.9690598
83.15                0.951430378      63.7863828
83.34                0.951502535      63.6039948
83.53                0.951574714      63.4218951
83.72                0.951646911       63.240083
83.91                0.951719126      63.0585576
84.1                 0.951791357      62.8773183
84.29                0.951863602      62.6963643
84.48                0.951935861      62.5156948
84.67                0.952008132      62.3353092
84.86                0.952080413      62.1552066
85.05                0.952152703      61.9753863
85.24                0.952225001      61.7958476
85.43                0.952297305      61.6165898
85.62                0.952369614       61.437612
85.81                0.952441927      61.2589136
86                   0.952514242      61.0804939
86.19                0.952586558       60.902352
86.38                0.952658875      60.7244874
86.57                0.952731189      60.5468991
86.76                0.952803501      60.3695866
86.95                0.952875809       60.192549
87.14                0.952948112      60.0157857
87.33                0.953020408      59.8392959
87.52                0.953092697      59.6630788
87.71                0.953164977      59.4871339
87.9                 0.953237248      59.3114603
88.09                0.953309507      59.1360574
88.28                0.953381754      58.9609243
88.47                0.953453987      58.7860605
88.66                0.953526206      58.6114651
88.85                 0.95359841      58.4371375
89.04                0.953670597      58.2630769
89.23                0.953742766      58.0892827
89.42                0.953814916       57.915754
89.61                0.953887047      57.7424903
89.8                 0.953959157      57.5694908
89.99                0.954031244      57.3967548
90.18                0.954103309      57.2242816
90.37                 0.95417535      57.0520705
90.56                0.954247365      56.8801208
90.75                0.954319355      56.7084317
90.94                0.954391318      56.5370026
91.13                0.954463253      56.3658329
91.32                 0.95453516      56.1949217
91.51                0.954607036      56.0242684
91.7                 0.954678882      55.8538722
91.89                0.954750696      55.6837326
92.08                0.954822478      55.5138489
92.27                0.954894226      55.3442202
92.46                 0.95496594       55.174846
92.65                0.955037619      55.0057255
92.84                0.955109261      54.8368581
93.03                0.955180867      54.6682431
93.22                0.955252435      54.4998798
93.41                0.955323965      54.3317675
93.6                 0.955395455      54.1639055
93.79                0.955466905      53.9962932
93.98                0.955538314      53.8289299
94.17                0.955609681      53.6618149
94.36                0.955681005      53.4949476
94.55                0.955752286      53.3283272
94.74                0.955823523      53.1619531
94.93                0.955894715      52.9958246
95.12                0.955965862      52.8299411
95.31                0.956036962      52.6643019
95.5                 0.956108015      52.4989063
95.69                 0.95617902      52.3337537
95.88                0.956249976      52.1688434
96.07                0.956320884      52.0041748
96.26                0.956391741      51.8397471
96.45                0.956462548      51.6755598
96.64                0.956533303      51.5116121
96.83                0.956604006      51.3479035
97.02                0.956674657      51.1844333
97.21                0.956745254      51.0212007
97.4                 0.956815798      50.8582053
97.59                0.956886287      50.6954462
97.78                 0.95695672       50.532923
97.97                0.957027098      50.3706349
98.16                0.957097419      50.2085813
98.35                0.957167684      50.0467615
98.54                 0.95723789      49.8851749
98.73                0.957308039      49.7238209
98.92                0.957378128      49.5626989
99.11                0.957448158      49.4018082
99.3                 0.957518128      49.2411481
99.49                0.957588038      49.0807181
99.68                0.957657886      48.9205174
99.87                0.957727673      48.7605456
100.06               0.957797398      48.6008019
100.25                0.95786706      48.4412857
100.44               0.957936658      48.2819964
100.63               0.958006193      48.1229334
100.82               0.958075664      47.9640961
101.01                0.95814507      47.8054838
101.2                 0.95821441      47.6470959
101.39               0.958283685      47.4889318
101.58               0.958352893      47.3309909
101.77               0.958422035      47.1732726
101.96               0.958491109      47.0157762
102.15               0.958560116      46.8585012
102.34               0.958629055      46.7014469
102.53               0.958697924      46.5446128
102.72               0.958766725      46.3879982
102.91               0.958835457      46.2316025
103.1                0.958904118      46.0754251
103.29               0.958972709      45.9194655
103.48               0.959041229       45.763723
103.67               0.959109678       45.608197
103.86               0.959178055      45.4528869
104.05                0.95924636      45.2977921
104.24               0.959314593      45.1429121
104.43               0.959382752      44.9882462
104.62               0.959450839      44.8337939
104.81               0.959518851      44.6795545
105                   0.95958679      44.5255275
105.19               0.959654654      44.3717123
105.38               0.959722444      44.2181083
105.57               0.959790158      44.0647149
105.76               0.959857797      43.9115316
105.95               0.959925359      43.7585577
106.14               0.959992846      43.6057927
106.33               0.960060256       43.453236
106.52               0.960127589       43.300887
106.71               0.960194844      43.1487452
106.9                0.960262022      42.9968099
107.09               0.960329122      42.8450807
107.28               0.960396143      42.6935569
107.47               0.960463086       42.542238
107.66                0.96052995      42.3911233
107.85               0.960596735      42.2402124
108.04                0.96066344      42.0895047
108.23               0.960730065      41.9389996
108.42                0.96079661      41.7886965
108.61               0.960863075       41.638595
108.8                0.960929459      41.4886943
108.99               0.960995761      41.3389941
109.18               0.961061983      41.1894936
109.37               0.961128122      41.0401924
109.56                0.96119418        40.89109
109.75               0.961260156      40.7421857
109.94               0.961326049       40.593479
110.13               0.961391859      40.4449693
110.32               0.961457586      40.2966562
110.51                0.96152323      40.1485391
110.7                 0.96158879      40.0006174
110.89               0.961654267      39.8528906
111.08                0.96171966      39.7053581
111.27               0.961784968      39.5580195
111.46               0.961850192      39.4108741
111.65               0.961915331      39.2639214
111.84               0.961980385      39.1171609
112.03               0.962045353      38.9705922
112.22               0.962110237      38.8242145
112.41               0.962175034      38.6780274
112.6                0.962239746      38.5320304
112.79               0.962304371       38.386223
112.98                0.96236891      38.2406045
113.17               0.962433363      38.0951746
113.36               0.962497729      37.9499326
113.55               0.962562007      37.8048781
113.74               0.962626199      37.6600105
113.93               0.962690303      37.5153293
114.12               0.962754319       37.370834
114.31               0.962818248       37.226524
114.5                0.962882088      37.0823989
114.69               0.962945841      36.9384582
114.88               0.963009504      36.7947012
115.07                0.96307308      36.6511276
115.26               0.963136566      36.5077368
115.45               0.963199964      36.3645282
115.64               0.963263272      36.2215015
115.83               0.963326491       36.078656
116.02                0.96338962      35.9359913
116.21                0.96345266      35.7935069
116.4                 0.96351561      35.6512023
116.59                0.96357847      35.5090769
116.78                0.96364124      35.3671303
116.97               0.963703919      35.2253619
117.16               0.963766508      35.0837714
117.35               0.963829006      34.9423581
117.54               0.963891413      34.8011216
117.73               0.963953729      34.6600613
117.92               0.964015954      34.5191769
118.11               0.964078088      34.3784678
118.3                 0.96414013      34.2379335
118.49                0.96420208      34.0975735
118.68               0.964263939      33.9573874
118.87               0.964325706      33.8173746
119.06                0.96438738      33.6775347
119.25               0.964448963      33.5378672
119.44               0.964510453      33.3983716
119.63               0.964571851      33.2590475
119.82               0.964633156      33.1198942
120.01               0.964694368      32.9809115
120.2                0.964755487      32.8420987
120.39               0.964816513      32.7034555
120.58               0.964877446      32.5649813
120.77               0.964938286      32.4266757
120.96               0.964999032      32.2885382
121.15               0.965059685      32.1505683
121.34               0.965120244      32.0127656
121.53               0.965180709      31.8751296
121.72               0.965241081      31.7376598
121.91               0.965301358      31.6003557
122.1                0.965361541       31.463217
122.29                0.96542163      31.3262431
122.48               0.965481624      31.1894335
122.67               0.965541523      31.0527879
122.86               0.965601329      30.9163057
123.05               0.965661039      30.7799865
123.24               0.965720654      30.6438299
123.43               0.965780175      30.5078353
123.62                 0.9658396      30.3720024
123.81                0.96589893      30.2363306
124                  0.965958165      30.1008195
124.19               0.966017304      29.9654687
124.38               0.966076348      29.8302778
124.57               0.966135296      29.6952462
124.76               0.966194148      29.5603735
124.95               0.966252904      29.4256592
125.14               0.966311565      29.2911031
125.33               0.966370129      29.1567045
125.52               0.966428598       29.022463
125.71                0.96648697      28.8883782
125.9                0.966545245      28.7544497
126.09               0.966603424       28.620677
126.28               0.966661507      28.4870597
126.47               0.966719493      28.3535973
126.66               0.966777382      28.2202894
126.85               0.966835174      28.0871356
127.04               0.966892869      27.9541354
127.23               0.966950468      27.8212884
127.42               0.967007969      27.6885942
127.61               0.967065373      27.5560523
127.8                0.967122679      27.4236623
127.99               0.967179888      27.2914238
128.18                  0.967237      27.1593363
128.37               0.967294014      27.0273995
128.56                0.96735093      26.8956128
128.75               0.967407749       26.763976
128.94               0.967464469      26.6324884
129.13               0.967521092      26.5011498
129.32               0.967577616      26.3699597
129.51               0.967634043      26.2389177
129.7                0.967690371      26.1080233
129.89               0.967746601      25.9772762
130.08               0.967802733      25.8466758
130.27               0.967858766      25.7162219
130.46                 0.9679147       25.585914
130.65               0.967970536      25.4557517
130.84               0.968026273      25.3257345
131.03               0.968081911      25.1958621
131.22               0.968137451       25.066134
131.41               0.968192891      24.9365498
131.6                0.968248232      24.8071092
131.79               0.968303474      24.6778117
131.98               0.968358617      24.5486568
132.17               0.968413661      24.4196443
132.36               0.968468605      24.2907736
132.55                0.96852345      24.1620445
132.74               0.968578195      24.0334564
132.93                0.96863284       23.905009
133.12               0.968687386      23.7767018
133.31               0.968741832      23.6485346
133.5                0.968796178      23.5205068
133.69               0.968850424       23.392618
133.88                0.96890457       23.264868
134.07               0.968958616      23.1372562
134.26               0.969012561      23.0097824
134.45               0.969066407       22.882446
134.64               0.969120151      22.7552467
134.83               0.969173796      22.6281841
135.02                0.96922734      22.5012578
135.21               0.969280783      22.3744674
135.4                0.969334126      22.2478125
135.59               0.969387368      22.1212928
135.78               0.969440509      21.9949078
135.97               0.969493549      21.8686572
136.16               0.969546488      21.7425405
136.35               0.969599325      21.6165574
136.54               0.969652062      21.4907075
136.73               0.969704698      21.3649904
136.92               0.969757232      21.2394058
137.11               0.969809665      21.1139532
137.3                0.969861996      20.9886322
137.49               0.969914225      20.8634426
137.68               0.969966353      20.7383838
137.87                0.97001838      20.6134555
138.06               0.970070304      20.4886574
138.25               0.970122127      20.3639891
138.44               0.970173847      20.2394501
138.63               0.970225466      20.1150401
138.82               0.970276982      19.9907588
139.01               0.970328396      19.8666057
139.2                0.970379708      19.7425805
139.39               0.970430918      19.6186828
139.58               0.970482025      19.4949123
139.77               0.970533029      19.3712685
139.96               0.970583931      19.2477511
140.15                0.97063473      19.1243598
140.34               0.970685427       19.001094
140.53                0.97073602      18.8779536
140.72               0.970786511      18.7549381
140.91               0.970836898      18.6320472
141.1                0.970887183      18.5092804
141.29               0.970937364      18.3866374
141.48               0.970987442      18.2641179
141.67               0.971037417      18.1417215
141.86               0.971087288      18.0194478
142.05               0.971137056      17.8972965
142.24                0.97118672      17.7752672
142.43                0.97123628      17.6533595
142.62               0.971285737      17.5315731
142.81                0.97133509      17.4099076
143                  0.971384339      17.2883627
143.19               0.971433483       17.166938
143.38               0.971482524      17.0456331
143.57               0.971531461      16.9244477
143.76               0.971580293      16.8033815
143.95               0.971629021       16.682434
144.14               0.971677644       16.561605
144.33               0.971726163       16.440894
144.52               0.971774578      16.3203007
144.71               0.971822887      16.1998248
144.9                0.971871092      16.0794659
145.09               0.971919192      15.9592236
145.28               0.971967187      15.8390977
145.47               0.972015077      15.7190877
145.66               0.972062862      15.5991933
145.85               0.972110542      15.4794142
146.04               0.972158116        15.35975
146.23               0.972205585      15.2402003
146.42               0.972252949      15.1207649
146.61               0.972300207      15.0014433
146.8                0.972347359      14.8822352
146.99               0.972394405      14.7631404
147.18               0.972441346      14.6441583
147.37               0.972488181      14.5252887
147.56                0.97253491      14.4065313
147.75               0.972581532      14.2878857
147.94               0.972628049      14.1693515
148.13               0.972674459      14.0509285
148.32               0.972720763      13.9326162
148.51                0.97276696      13.8144144
148.7                0.972813051      13.6963227
148.89               0.972859035      13.5783407
149.08               0.972904912      13.4604681
149.27               0.972950683      13.3427046
149.46               0.972996347      13.2250499
149.65               0.973041903      13.1075036
149.84               0.973087353      12.9900653
150.03               0.973132695      12.8727348
150.22                0.97317793      12.7555116
150.41               0.973223058      12.6383955
150.6                0.973268078      12.5213862
150.79               0.973312991      12.4044832
150.98               0.973357796      12.2876863
151.17               0.973402493      12.1709951
151.36               0.973447082      12.0544093
151.55               0.973491564      11.9379286
151.74               0.973535937      11.8215526
151.93               0.973580203       11.705281
152.12                0.97362436      11.5891135
152.31               0.973668408      11.4730497
152.5                0.973712349      11.3570893
152.69               0.973756181       11.241232
152.88               0.973799904      11.1254774
153.07               0.973843518      11.0098253
153.26               0.973887024      10.8942753
153.45               0.973930421       10.778827
153.64               0.973973709      10.6634802
153.83               0.974016887      10.5482345
154.02               0.974059957      10.4330896
154.21               0.974102917      10.3180451
154.4                0.974145768      10.2031008
154.59               0.974188509      10.0882563
154.78               0.974231141      9.97351127
154.97               0.974273663      9.85886542
155.16               0.974316076      9.74431842
155.35               0.974358378      9.62986993
155.54               0.974400571      9.51551965
155.73               0.974442653      9.40126724
155.92               0.974484625      9.28711238
156.11               0.974526487      9.17305476
156.3                0.974568239      9.05909405
156.49                0.97460988      8.94522993
156.68               0.974651411      8.83146207
156.87               0.974692831      8.71779018
157.06                0.97473414      8.60421391
157.25               0.974775339      8.49073295
157.44               0.974816426      8.37734699
157.63               0.974857403       8.2640557
157.82               0.974898268      8.15085877
158.01               0.974939022      8.03775588
158.2                0.974979665      7.92474671
158.39               0.975020196      7.81183095
158.58               0.975060616      7.69900827
158.77               0.975100924      7.58627836
158.96                0.97514112      7.47364092
159.15               0.975181205      7.36109561
159.34               0.975221177      7.24864212
159.53               0.975261038      7.13628015
159.72               0.975300786      7.02400937
159.91               0.975340423      6.91182947
160.1                0.975379946      6.79974013
160.29               0.975419358      6.68774105
160.48               0.975458657       6.5758319
160.67               0.975497843      6.46401238
160.86               0.975536917      6.35228217
161.05               0.975575877      6.24064095
161.24               0.975614725      6.12908843
161.43                0.97565346      6.01762427
161.62               0.975692082      5.90624818
161.81                0.97573059      5.79495983
162                  0.975768985      5.68375893
162.19               0.975807267      5.57264515
162.38               0.975845436      5.46161818
162.57                0.97588349      5.35067772
162.76               0.975921431      5.23982345
162.95               0.975959259      5.12905506
163.14               0.975996972      5.01837224
163.33               0.976034571      4.90777469
163.52               0.976072057      4.79726208
163.71               0.976109428      4.68683412
163.9                0.976146685      4.57649049
164.09               0.976183828      4.46623089
164.28               0.976220856        4.356055
164.47               0.976257769      4.24596251
164.66               0.976294568      4.13595312
164.85               0.976331253      4.02602651
165.04               0.976367822      3.91618239
165.23               0.976404277      3.80642043
165.42               0.976440616      3.69674034
165.61               0.976476841       3.5871418
165.8                 0.97651295       3.4776245
165.99               0.976548944      3.36818815
166.18               0.976584823      3.25883242
166.37               0.976620586      3.14955702
166.56               0.976656234      3.04036163
166.75               0.976691766      2.93124595
166.94               0.976727182      2.82220967
167.13               0.976762483      2.71325248
167.32               0.976797668      2.60437408
167.51               0.976832736      2.49557416
167.7                0.976867689      2.38685241
167.89               0.976902526      2.27820853
168.08               0.976937246      2.16964221
168.27                0.97697185      2.06115313
168.46               0.977006338      1.95274101
168.65                0.97704071      1.84440552
168.84               0.977074964      1.73614636
169.03               0.977109103      1.62796324
169.22               0.977143124      1.51985583
169.41               0.977177029      1.41182383
169.6                0.977210817      1.30386694
169.79               0.977244488      1.19598485
169.98               0.977278042      1.08817726
170.17               0.977311479     0.980443855
170.36               0.977344799     0.872784332
170.55               0.977378001     0.765198385
170.74               0.977411087     0.657685707
170.93               0.977444055     0.550245992
171.12               0.977476905     0.442878934
171.31               0.977509639     0.335584227
171.5                0.977542254     0.228361564
171.69               0.977574752     0.121210639
171.88               0.977607133    0.0141311462
172.07               0.977639395   -0.0928772216
172.26                0.97767154    -0.199814771
172.45               0.977703567    -0.306681807
172.64               0.977735476    -0.413478638
172.83               0.977767267     -0.52020557
173.02                0.97779894    -0.626862909
173.21               0.977830495    -0.733450963
173.4                0.977861932    -0.839970037
173.59                0.97789325     -0.94642044
173.78               0.977924451     -1.05280248
173.97               0.977955533     -1.15911646
174.16               0.977986497     -1.26536269
174.35               0.978017342     -1.37154147
174.54               0.978048069     -1.47765312
174.73               0.978078677     -1.58369794
174.92               0.978109167     -1.68967624
175.11               0.978139539     -1.79558833
175.3                0.978169791     -1.90143452
175.49               0.978199925      -2.0072151
175.68               0.978229941      -2.1129304
175.87               0.978259838     -2.21858072
176.06               0.978289616     -2.32416636
176.25               0.978319275     -2.42968764
176.44               0.978348816     -2.53514487
176.63               0.978378237     -2.64053836
176.82                0.97840754      -2.7458684
177.01               0.978436724     -2.85113532
177.2                0.978465789     -2.95633943
177.39               0.978494735     -3.06148103
177.58               0.978523563     -3.16656043
177.77               0.978552271     -3.27157794
177.96                0.97858086     -3.37653388
178.15               0.978609331     -3.48142855
178.34               0.978637682     -3.58626227
178.53               0.978665915     -3.69103534
178.72               0.978694028     -3.79574809
178.91               0.978722023     -3.90040081
179.1                0.978749899     -4.00499383
179.29               0.978777655     -4.10952744
179.48               0.978805293     -4.21400198
179.67               0.978832812     -4.31841774
179.86               0.978860211     -4.42277505
180.05               0.978887492     -4.52707421
180.24               0.978914654     -4.63131555
180.43               0.978941697     -4.73549936
180.62               0.978968621     -4.83962597
180.81               0.978995427      -4.9436957
181                  0.979022113     -5.04770885
181.19               0.979048681     -5.15166574
181.38                0.97907513      -5.2555667
181.57                0.97910146     -5.35941202
181.76               0.979127672     -5.46320204
181.95               0.979153765     -5.56693706
182.14               0.979179739      -5.6706174
182.33               0.979205595     -5.77424339
182.52               0.979231332     -5.87781533
182.71               0.979256951     -5.98133356
182.9                0.979282451     -6.08479837
183.09               0.979307833      -6.1882101
183.28               0.979333097     -6.29156907
183.47               0.979358243     -6.39487559
183.66                0.97938327     -6.49812998
183.85                0.97940818     -6.60133256
184.04               0.979432971     -6.70448366
184.23               0.979457645      -6.8075836
184.42                 0.9794822     -6.91063269
184.61               0.979506638     -7.01363127
184.8                0.979530959     -7.11657965
184.99               0.979555162     -7.21947815
185.18               0.979579247     -7.32232711
185.37               0.979603215     -7.42512684
185.56               0.979627066     -7.52787767
185.75                 0.9796508     -7.63057993
185.94               0.979674416     -7.73323393
186.13               0.979697916     -7.83584001
186.32               0.979721299      -7.9383985
186.51               0.979744566     -8.04090972
186.7                0.979767716     -8.14337399
186.89               0.979790749     -8.24579165
187.08               0.979813667     -8.34816303
187.27               0.979836468     -8.45048846
187.46               0.979859153     -8.55276826
187.65               0.979881723     -8.65500276
187.84               0.979904177     -8.75719231
188.03               0.979926515     -8.85933722
188.22               0.979948738     -8.96143784
188.41               0.979970847     -9.06349449
188.6                 0.97999284     -9.16550751
188.79               0.980014718     -9.26747723
188.98               0.980036482     -9.36940399
189.17               0.980058132     -9.47128812
189.36               0.980079667     -9.57312996
189.55               0.980101088     -9.67492985
189.74               0.980122396     -9.77668812
189.93                0.98014359     -9.87840511
190.12               0.980164671     -9.98008117
190.31               0.980185638     -10.0817166
190.5                0.980206493     -10.1833118
190.69               0.980227235     -10.2848671
190.88               0.980247865     -10.3863828
191.07               0.980268383     -10.4878593
191.26               0.980288789     -10.5892968
191.45               0.980309083     -10.6906959
191.64               0.980329266     -10.7920567
191.83               0.980349338     -10.8933797
192.02               0.980369299     -10.9946651
192.21               0.980389149     -11.0959134
192.4                0.980408889     -11.1971249
192.59                0.98042852     -11.2982999
192.78               0.980448041     -11.3994388
192.97               0.980467452     -11.5005419
193.16               0.980486755     -11.6016096
193.35               0.980505948     -11.7026422
193.54               0.980525034     -11.8036402
193.73               0.980544012     -11.9046037
193.92               0.980562882     -12.0055333
194.11               0.980581644     -12.1064292
194.3                  0.9806003     -12.2072918
194.49               0.980618849     -12.3081215
194.68               0.980637292     -12.4089186
194.87                0.98065563     -12.5096835
195.06               0.980673862     -12.6104165
195.25               0.980691989      -12.711118
195.44               0.980710011     -12.8117884
195.63               0.980727929     -12.9124279
195.82               0.980745744     -13.0130371
196.01               0.980763455     -13.1136163
196.2                0.980781063     -13.2141657
196.39               0.980798569     -13.3146858
196.58               0.980815973      -13.415177
196.77               0.980833276     -13.5156396
196.96               0.980850477      -13.616074
197.15               0.980867578     -13.7164805
197.34                0.98088458     -13.8168596
197.53               0.980901481     -13.9172116
197.72               0.980918284     -14.0175368
197.91               0.980934988     -14.1178357
198.1                0.980951594     -14.2181087
198.29               0.980968103      -14.318356
198.48               0.980984514     -14.4185781
198.67                0.98100083     -14.5187753
198.86                0.98101705     -14.6189481
199.05               0.981033175     -14.7190968
199.24               0.981049205     -14.8192219
199.43               0.981065141     -14.9193236
199.62               0.981080984     -15.0194023
199.81               0.981096735     -15.1194586
200                  0.981112393     -15.2194926
