! TOUCHSTONE file generated by CST MICROWAVE STUDIO
! Date and time: Mon Sep 14 08:20:11 2026
! Project name: inductor_td.cst
! Header version: 2024
! Port assignment regex: !\s*Touchstone port\s*([0-9]+)\s*=\s*(CST MWS port|CST DES external port|CST DES block port)\s*(.+)\s* \(\"(.*)\"\)(\s*mode\s*([0-9]+))?.*
! Touchstone port assignment:
! Touchstone port 1 = CST MWS port 1 ("P1")
! Touchstone port 2 = CST MWS port 2 ("P2")
# GHz S MA R 50
10                    0.06178219        77.52372        0.9903404       -5.711526        0.9903403       -5.711526        0.0617849         77.5236
10.19                 0.06286778        77.42891        0.9902049       -5.819818        0.9902049       -5.819819       0.06287047        77.42873
10.38                 0.06395019        77.33426        0.9900665       -5.928064        0.9900665       -5.928065       0.06395286        77.33402
10.57                 0.06502949        77.23986        0.9899252       -6.036263        0.9899252       -6.036264       0.06503214        77.23956
10.76                 0.06610574         77.1458        0.9897811        -6.14441        0.9897811       -6.144411       0.06610837        77.14545
10.95                 0.06717901        77.05212        0.9896341       -6.252503        0.9896341       -6.252504       0.06718162        77.05173
11.14                 0.06824939        76.95892        0.9894841        -6.36054        0.9894841       -6.360541       0.06825196        76.95848
11.33                 0.06931694        76.86624        0.9893314       -6.468516        0.9893314       -6.468518       0.06931948        76.86575
11.52                 0.07038174        76.77413        0.9891758        -6.57643        0.9891758       -6.576431       0.07038424         76.7736
11.71                 0.07144387        76.68262        0.9890175       -6.684279        0.9890175       -6.684279       0.07144634        76.68206
11.9                  0.07250343        76.59177        0.9888564       -6.792058        0.9888564        -6.79206       0.07250586        76.59117
12.09                  0.0735605         76.5016        0.9886926       -6.899768        0.9886925       -6.899769       0.07356289        76.50097
12.28                 0.07461517        76.41213        0.9885261       -7.007403         0.988526       -7.007404       0.07461752        76.41148
12.47                 0.07566753         76.3234        0.9883568       -7.114962        0.9883568       -7.114964       0.07566984        76.32273
12.66                 0.07671768        76.23543        0.9881851       -7.222441        0.9881851       -7.222443       0.07671994        76.23472
12.85                 0.07776572        76.14821        0.9880107        -7.32984        0.9880107       -7.329841       0.07776793        76.14748
13.04                 0.07881174        76.06177        0.9878338       -7.437154        0.9878338       -7.437155        0.0788139        76.06102
13.23                 0.07985584        75.97611        0.9876543       -7.544382        0.9876543       -7.544382       0.07985795        75.97534
13.42                 0.08089813        75.89122        0.9874724       -7.651522        0.9874724       -7.651523       0.08090018        75.89045
13.61                 0.08193869        75.80712        0.9872882       -7.758569        0.9872882        -7.75857        0.0819407        75.80634
13.8                  0.08297766         75.7238        0.9871016       -7.865523        0.9871016       -7.865524       0.08297961          75.723
13.99                 0.08401511        75.64125        0.9869127       -7.972383        0.9869127       -7.972384         0.084017        75.64045
14.18                 0.08505116        75.55945        0.9867216       -8.079146        0.9867216       -8.079148       0.08505299        75.55864
14.37                  0.0860859        75.47841        0.9865283       -8.185809        0.9865283        -8.18581       0.08608767        75.47759
14.56                 0.08711944         75.3981        0.9863328       -8.292373        0.9863328       -8.292374       0.08712116        75.39728
14.75                 0.08815189         75.3185        0.9861354       -8.398832        0.9861353       -8.398834       0.08815355        75.31769
14.94                 0.08918335        75.23961        0.9859358       -8.505189        0.9859358        -8.50519       0.08918495         75.2388
15.13                 0.09021392        75.16138        0.9857343       -8.611442        0.9857343       -8.611443       0.09021545        75.16058
15.32                 0.09124369        75.08383         0.985531       -8.717587         0.985531       -8.717587       0.09124517        75.08303
15.51                 0.09227277        75.00689        0.9853259       -8.823625        0.9853258       -8.823625        0.0922742         75.0061
15.7                  0.09330127        74.93056        0.9851189       -8.929553        0.9851189       -8.929554       0.09330263        74.92978
15.89                 0.09432928        74.85481        0.9849103       -9.035374        0.9849103       -9.035376       0.09433057        74.85404
16.08                 0.09535688        74.77961        0.9847002       -9.141084        0.9847001       -9.141086       0.09535812        74.77884
16.27                 0.09638418        74.70493        0.9844884       -9.246686        0.9844884       -9.246686       0.09638536        74.70418
16.46                 0.09741127        74.63073        0.9842751       -9.352173        0.9842751       -9.352175       0.09741238           74.63
16.65                 0.09843823          74.557        0.9840604       -9.457553        0.9840604       -9.457554        0.0984393        74.55628
16.84                 0.09946517        74.48369        0.9838445        -9.56282        0.9838444       -9.562821       0.09946617        74.48299
17.03                  0.1004922        74.41076        0.9836271       -9.667976        0.9836271       -9.667977        0.1004931        74.41009
17.22                  0.1015193        74.33821        0.9834087        -9.77302        0.9834087       -9.773023        0.1015202        74.33755
17.41                  0.1025466        74.26598         0.983189       -9.877956         0.983189       -9.877957        0.1025475        74.26534
17.6                   0.1035743        74.19404        0.9829683       -9.982781        0.9829683       -9.982783         0.103575        74.19342
17.79                  0.1046023        74.12235        0.9827467        -10.0875        0.9827467        -10.0875         0.104603        74.12176
17.98                  0.1056307        74.05089        0.9825241        -10.1921         0.982524       -10.19211        0.1056314        74.05032
18.17                  0.1066597        73.97962        0.9823007        -10.2966        0.9823006        -10.2966        0.1066603        73.97907
18.36                  0.1076892        73.90849        0.9820763         -10.401        0.9820763         -10.401        0.1076898        73.90797
18.55                  0.1087194        73.83749        0.9818514       -10.50529        0.9818514       -10.50529        0.1087199        73.83699
18.74                  0.1097503        73.76657        0.9816258       -10.60947        0.9816258       -10.60947        0.1097507         73.7661
18.93                  0.1107819         73.6957        0.9813996       -10.71355        0.9813996       -10.71356        0.1107823        73.69527
19.12                  0.1118143        73.62485        0.9811729       -10.81754        0.9811728       -10.81754        0.1118147        73.62445
19.31                  0.1128476        73.55398        0.9809457       -10.92142        0.9809457       -10.92142         0.112848         73.5536
19.5                   0.1138818        73.48306        0.9807182       -11.02521        0.9807181       -11.02521        0.1138821        73.48271
19.69                   0.114917        73.41206        0.9804903       -11.12891        0.9804902       -11.12891        0.1149173        73.41174
19.88                  0.1159531        73.34094        0.9802621       -11.23251        0.9802622       -11.23251        0.1159534        73.34065
20.07                  0.1169903        73.26968        0.9800338       -11.33602        0.9800338       -11.33602        0.1169905        73.26943
20.26                  0.1180285        73.19824        0.9798054       -11.43945        0.9798053       -11.43945        0.1180287        73.19801
20.45                  0.1190678        73.12659        0.9795768       -11.54279        0.9795767       -11.54279        0.1190679         73.1264
20.64                  0.1201082        73.05472        0.9793481       -11.64605        0.9793481       -11.64605        0.1201083        73.05456
20.83                  0.1211497        72.98258        0.9791195       -11.74923        0.9791195       -11.74923        0.1211498        72.98245
21.02                  0.1221924        72.91016         0.978891       -11.85234         0.978891       -11.85234        0.1221925        72.91006
21.21                  0.1232363        72.83741        0.9786626       -11.95538        0.9786626       -11.95538        0.1232363        72.83735
21.4                   0.1242813        72.76433        0.9784344       -12.05834        0.9784344       -12.05834        0.1242813         72.7643
21.59                  0.1253275        72.69088        0.9782064       -12.16124        0.9782063       -12.16124        0.1253275        72.69088
21.78                  0.1263749        72.61705        0.9779786       -12.26408        0.9779786       -12.26408        0.1263749        72.61708
21.97                  0.1274235         72.5428        0.9777511       -12.36686        0.9777511       -12.36686        0.1274235        72.54286
22.16                  0.1284732        72.46813         0.977524       -12.46959         0.977524       -12.46959        0.1284732        72.46823
22.35                  0.1295242          72.393        0.9772973       -12.57226        0.9772973       -12.57226        0.1295242        72.39313
22.54                  0.1305763        72.31741         0.977071       -12.67489        0.9770709       -12.67489        0.1305763        72.31756
22.73                  0.1316296        72.24133        0.9768451       -12.77748        0.9768451       -12.77748        0.1316296        72.24151
22.92                   0.132684        72.16473        0.9766197       -12.88002        0.9766197       -12.88002         0.132684        72.16496
23.11                  0.1337396        72.08763        0.9763948       -12.98253        0.9763948       -12.98253        0.1337396        72.08787
23.3                   0.1347963        72.00999        0.9761705       -13.08502        0.9761705       -13.08502        0.1347963        72.01027
23.49                  0.1358541         71.9318        0.9759466       -13.18747        0.9759466       -13.18747        0.1358541         71.9321
23.68                  0.1369129        71.85306        0.9757233        -13.2899        0.9757233        -13.2899         0.136913        71.85339
23.87                  0.1379729        71.77374        0.9755007        -13.3923        0.9755007        -13.3923        0.1379729         71.7741
24.06                  0.1390338        71.69384        0.9752786       -13.49469        0.9752786       -13.49469        0.1390338        71.69423
24.25                  0.1400957        71.61335        0.9750571       -13.59707        0.9750571       -13.59707        0.1400958        71.61377
24.44                  0.1411585        71.53227        0.9748363       -13.69946        0.9748363       -13.69946        0.1411586        71.53271
24.63                  0.1422223        71.45058        0.9746161       -13.80181        0.9746161       -13.80181        0.1422224        71.45105
24.82                   0.143287        71.36829        0.9743965       -13.90421        0.9743965       -13.90421        0.1432871        71.36878
25.01                  0.1443525        71.28537        0.9741777        -14.0066        0.9741776        -14.0066        0.1443526        71.28589
25.2                   0.1454188        71.20184        0.9739593       -14.10898        0.9739593       -14.10898         0.145419        71.20239
25.39                  0.1464858         71.1177        0.9737417       -14.21139        0.9737417        -14.2114        0.1464861        71.11827
25.58                  0.1475536        71.03292        0.9735247       -14.31382        0.9735247       -14.31382        0.1475539        71.03352
25.77                  0.1486221        70.94754        0.9733083       -14.41628        0.9733083       -14.41628        0.1486224        70.94814
25.96                  0.1496912        70.86151        0.9730925       -14.51876        0.9730925       -14.51876        0.1496915        70.86216
26.15                  0.1507609         70.7749        0.9728773       -14.62127        0.9728773       -14.62127        0.1507613        70.77553
26.34                  0.1518311        70.68764        0.9726627       -14.72382        0.9726627       -14.72382        0.1518315        70.68832
26.53                  0.1529018         70.5998        0.9724487       -14.82641        0.9724487       -14.82641        0.1529023        70.60046
26.72                  0.1539729        70.51131        0.9722352       -14.92904        0.9722352       -14.92905        0.1539734        70.51202
26.91                  0.1550444        70.42224        0.9720222       -15.03172        0.9720222       -15.03172         0.155045        70.42298
27.1                   0.1561163        70.33255        0.9718098       -15.13445        0.9718098       -15.13446         0.156117        70.33332
27.29                  0.1571885        70.24228        0.9715978       -15.23724        0.9715978       -15.23725        0.1571892        70.24305
27.48                  0.1582609        70.15141        0.9713863       -15.34009        0.9713862       -15.34009        0.1582616        70.15218
27.67                  0.1593335        70.05997        0.9711752         -15.443         0.971175         -15.443        0.1593343        70.06079
27.86                  0.1604062        69.96795        0.9709644       -15.54598        0.9709644       -15.54598        0.1604071        69.96878
28.05                  0.1614791        69.87539         0.970754       -15.64903         0.970754       -15.64903          0.16148        69.87621
28.24                   0.162552        69.78228        0.9705439       -15.75215        0.9705439       -15.75215        0.1625529         69.7831
28.43                  0.1636249        69.68863        0.9703341       -15.85535        0.9703341       -15.85535        0.1636259        69.68948
28.62                  0.1646977        69.59443        0.9701245       -15.95863        0.9701245       -15.95863        0.1646988         69.5953
28.81                  0.1657704        69.49973        0.9699151       -16.06199        0.9699151       -16.06199        0.1657716        69.50058
29                      0.166843        69.40452        0.9697058       -16.16544        0.9697058       -16.16544        0.1668442        69.40539
29.19                  0.1679154        69.30879        0.9694967       -16.26897        0.9694967       -16.26897        0.1679167        69.30969
29.38                  0.1689875        69.21259        0.9692877        -16.3726        0.9692877        -16.3726        0.1689889        69.21349
29.57                  0.1700594         69.1159        0.9690785       -16.47632        0.9690786       -16.47633        0.1700608        69.11683
29.76                  0.1711309         69.0188        0.9688695       -16.58015        0.9688694       -16.58015        0.1711324        69.01971
29.95                  0.1722021        68.92124        0.9686603       -16.68407        0.9686603       -16.68407        0.1722036        68.92214
30.14                  0.1732728        68.82324         0.968451       -16.78809        0.9684509       -16.78809        0.1732744         68.8242
30.33                  0.1743431        68.72483        0.9682415       -16.89222        0.9682414       -16.89222        0.1743447        68.72576
30.52                  0.1754128        68.62604        0.9680317       -16.99645        0.9680317       -16.99645        0.1754146        68.62697
30.71                  0.1764821        68.52681        0.9678216        -17.1008        0.9678216        -17.1008        0.1764839        68.52777
30.9                   0.1775508        68.42728        0.9676112       -17.20525        0.9676112       -17.20525        0.1775527        68.42821
31.09                  0.1786189        68.32737        0.9674004       -17.30982        0.9674004       -17.30982        0.1786208         68.3283
31.28                  0.1796863        68.22708        0.9671891       -17.41449        0.9671891       -17.41449        0.1796883        68.22806
31.47                  0.1807531        68.12648        0.9669773       -17.51929        0.9669773       -17.51929        0.1807552        68.12747
31.66                  0.1818192        68.02561         0.966765       -17.62419         0.966765        -17.6242        0.1818213        68.02657
31.85                  0.1828845        67.92445         0.966552       -17.72922         0.966552       -17.72922        0.1828867        67.92537
32.04                  0.1839491        67.82298        0.9663383       -17.83437        0.9663383       -17.83437        0.1839514         67.8239
32.23                  0.1850129        67.72123        0.9661239       -17.93963        0.9661239       -17.93964        0.1850153        67.72219
32.42                  0.1860759        67.61924        0.9659087       -18.04502        0.9659087       -18.04502        0.1860784         67.6202
32.61                  0.1871381        67.51704        0.9656926       -18.15053        0.9656926       -18.15053        0.1871406        67.51797
32.8                   0.1881994        67.41459        0.9654756       -18.25616        0.9654756       -18.25616         0.188202        67.41557
32.99                  0.1892599        67.31194        0.9652576       -18.36191        0.9652576       -18.36191        0.1892626         67.3129
33.18                  0.1903195        67.20911        0.9650387       -18.46778        0.9650387       -18.46778        0.1903222        67.21009
33.37                  0.1913782        67.10611        0.9648186       -18.57378        0.9648186       -18.57378         0.191381        67.10706
33.56                   0.192436        67.00292        0.9645974       -18.67989        0.9645974        -18.6799        0.1924389        67.00387
33.75                  0.1934929        66.89962        0.9643751       -18.78614        0.9643751       -18.78614        0.1934958        66.90057
33.94                  0.1945489        66.79618        0.9641514        -18.8925        0.9641514        -18.8925        0.1945519        66.79711
34.13                  0.1956039        66.69261        0.9639264       -18.99899        0.9639264       -18.99899         0.195607        66.69354
34.32                   0.196658        66.58892        0.9637002       -19.10559        0.9637002        -19.1056        0.1966611        66.58988
34.51                  0.1977112        66.48516        0.9634725       -19.21232        0.9634724       -19.21232        0.1977144        66.48609
34.7                   0.1987634        66.38132        0.9632434       -19.31917        0.9632433       -19.31917        0.1987667        66.38224
34.89                  0.1998147        66.27739        0.9630127       -19.42614        0.9630127       -19.42614         0.199818        66.27832
35.08                  0.2008651        66.17343        0.9627805       -19.53322        0.9627805       -19.53323        0.2008685        66.17434
35.27                  0.2019146         66.0694        0.9625467       -19.64043        0.9625467       -19.64043         0.201918        66.07032
35.46                  0.2029631        65.96535        0.9623113       -19.74775        0.9623112       -19.74775        0.2029665        65.96626
35.65                  0.2040107        65.86129        0.9620741       -19.85519        0.9620741       -19.85519        0.2040142        65.86219
35.84                  0.2050574        65.75721        0.9618352       -19.96274        0.9618352       -19.96274         0.205061         65.7581
36.03                  0.2061032        65.65313        0.9615946       -20.07041        0.9615946       -20.07041        0.2061069        65.65401
36.22                  0.2071482        65.54906        0.9613521       -20.17818        0.9613521       -20.17818        0.2071519        65.54994
36.41                  0.2081923        65.44501        0.9611077       -20.28607        0.9611077       -20.28607         0.208196        65.44588
36.6                   0.2092355        65.34099        0.9608615       -20.39406        0.9608615       -20.39406        0.2092393        65.34186
36.79                  0.2102779        65.23701        0.9606134       -20.50216        0.9606134       -20.50216        0.2102818        65.23787
36.98                  0.2113195        65.13307        0.9603632       -20.61037        0.9603632       -20.61037        0.2113235        65.13392
37.17                  0.2123604        65.02918        0.9601111       -20.71868        0.9601111       -20.71868        0.2123644        65.03003
37.36                  0.2134005        64.92536        0.9598569       -20.82709        0.9598569       -20.82709        0.2134045         64.9262
37.55                  0.2144398        64.82161        0.9596006        -20.9356        0.9596006        -20.9356        0.2144439        64.82244
37.74                  0.2154785        64.71793        0.9593423       -21.04421        0.9593423       -21.04421        0.2154826        64.71875
37.93                  0.2165164        64.61433        0.9590818       -21.15291        0.9590818       -21.15292        0.2165206        64.61514
38.12                  0.2175537        64.51081        0.9588192       -21.26171        0.9588192       -21.26171        0.2175579        64.51163
38.31                  0.2185904         64.4074        0.9585545        -21.3706        0.9585545        -21.3706        0.2185947        64.40821
38.5                   0.2196265        64.30408        0.9582875       -21.47957        0.9582875       -21.47957        0.2196308        64.30487
38.69                   0.220662        64.20086        0.9580183       -21.58864        0.9580183       -21.58864        0.2206664        64.20165
38.88                  0.2216971        64.09774        0.9577469       -21.69778        0.9577468       -21.69779        0.2217014        64.09852
39.07                  0.2227316        63.99473        0.9574732       -21.80701        0.9574732       -21.80701         0.222736        63.99551
39.26                  0.2237656        63.89184        0.9571973       -21.91632        0.9571973       -21.91632          0.22377         63.8926
39.45                  0.2247992        63.78906         0.956919       -22.02571         0.956919       -22.02571        0.2248037        63.78981
39.64                  0.2258325        63.68639        0.9566385       -22.13517        0.9566385       -22.13517         0.225837        63.68714
39.83                  0.2268654        63.58385        0.9563558       -22.24471        0.9563558       -22.24471        0.2268699        63.58459
40.02                   0.227898        63.48142        0.9560707       -22.35432        0.9560707       -22.35432        0.2279025        63.48216
40.21                  0.2289302        63.37911        0.9557833       -22.46399        0.9557833       -22.46399        0.2289348        63.37984
40.4                   0.2299623        63.27693        0.9554936       -22.57373        0.9554936       -22.57373         0.229967        63.27765
40.59                  0.2309942        63.17486        0.9552016       -22.68353        0.9552016       -22.68353        0.2309988        63.17558
40.78                  0.2320259        63.07292        0.9549073        -22.7934        0.9549073        -22.7934        0.2320306        63.07363
40.97                  0.2330575        62.97109        0.9546107       -22.90332        0.9546107       -22.90332        0.2330622         62.9718
41.16                   0.234089        62.86939        0.9543117        -23.0133        0.9543117        -23.0133        0.2340937        62.87009
41.35                  0.2351204         62.7678        0.9540106       -23.12334        0.9540106       -23.12334        0.2351252         62.7685
41.54                  0.2361519        62.66632        0.9537071       -23.23342        0.9537071       -23.23342        0.2361567        62.66701
41.73                  0.2371834        62.56496        0.9534013       -23.34356        0.9534013       -23.34356        0.2371882        62.56565
41.92                  0.2382149        62.46371        0.9530932       -23.45374        0.9530932       -23.45375        0.2382198        62.46439
42.11                  0.2392466        62.36257        0.9527829       -23.56398        0.9527829       -23.56398        0.2392515        62.36325
42.3                   0.2402785        62.26153        0.9524703       -23.67425        0.9524703       -23.67425        0.2402833         62.2622
42.49                  0.2413105        62.16059        0.9521554       -23.78457        0.9521554       -23.78457        0.2413154        62.16126
42.68                  0.2423428        62.05975        0.9518385       -23.89492        0.9518384       -23.89492        0.2423477        62.06042
42.87                  0.2433753          61.959        0.9515192       -24.00532        0.9515192       -24.00532        0.2433802        61.95967
43.06                  0.2444082        61.85834        0.9511978       -24.11574        0.9511978       -24.11574        0.2444131        61.85899
43.25                  0.2454414        61.75776        0.9508743        -24.2262        0.9508743        -24.2262        0.2454463        61.75841
43.44                  0.2464749        61.65726        0.9505486        -24.3367        0.9505486        -24.3367        0.2464799        61.65791
43.63                  0.2475089        61.55683        0.9502208       -24.44722        0.9502208       -24.44722        0.2475139        61.55748
43.82                  0.2485434        61.45646         0.949891       -24.55778         0.949891       -24.55778        0.2485483        61.45711
44.01                  0.2495783        61.35617        0.9495591       -24.66835         0.949559       -24.66836        0.2495833        61.35681
44.2                   0.2506137        61.25592        0.9492251       -24.77896        0.9492251       -24.77896        0.2506187        61.25657
44.39                  0.2516497        61.15572        0.9488891       -24.88959        0.9488891       -24.88959        0.2516547        61.15637
44.58                  0.2526863        61.05557        0.9485511       -25.00024        0.9485511       -25.00025        0.2526913        61.05622
44.77                  0.2537235        60.95545        0.9482112       -25.11092        0.9482112       -25.11092        0.2537285        60.95609
44.96                  0.2547613        60.85536        0.9478694       -25.22162        0.9478694       -25.22162        0.2547664          60.856
45.15                  0.2557999         60.7553        0.9475257       -25.33233        0.9475257       -25.33233        0.2558049        60.75593
45.34                  0.2568391        60.65525        0.9471802       -25.44307        0.9471802       -25.44307        0.2568441        60.65588
45.53                   0.257879         60.5552        0.9468329       -25.55381        0.9468328       -25.55382        0.2578841        60.55584
45.72                  0.2589197        60.45516        0.9464837       -25.66458        0.9464837       -25.66458        0.2589247         60.4558
45.91                  0.2599612        60.35512        0.9461328       -25.77537        0.9461328       -25.77537        0.2599662        60.35575
46.1                   0.2610034        60.25505        0.9457802       -25.88617        0.9457802       -25.88617        0.2610085         60.2557
46.29                  0.2620465        60.15496         0.945426       -25.99698         0.945426       -25.99698        0.2620516        60.15561
46.48                  0.2630904        60.05486          0.94507       -26.10781          0.94507       -26.10781        0.2630955        60.05551
46.67                  0.2641352        59.95471        0.9447124       -26.21865        0.9447124       -26.21865        0.2641403        59.95536
46.86                  0.2651809        59.85452        0.9443533        -26.3295        0.9443533        -26.3295         0.265186        59.85518
47.05                  0.2662274        59.75428        0.9439927       -26.44037        0.9439927       -26.44037        0.2662325        59.75493
47.24                  0.2672749        59.65398        0.9436306       -26.55125        0.9436306       -26.55125          0.26728        59.65463
47.43                  0.2683233        59.55361         0.943267       -26.66214         0.943267       -26.66214        0.2683284        59.55427
47.62                  0.2693726        59.45317         0.942902       -26.77305         0.942902       -26.77305        0.2693777        59.45383
47.81                  0.2704228        59.35264        0.9425356       -26.88397        0.9425356       -26.88397         0.270428        59.35331
48                     0.2714741        59.25203        0.9421678        -26.9949        0.9421678        -26.9949        0.2714792         59.2527
48.19                  0.2725262        59.15132        0.9417987       -27.10585        0.9417988       -27.10585        0.2725314          59.152
48.38                  0.2735794        59.05051        0.9414284       -27.21681        0.9414284       -27.21682        0.2735845        59.05119
48.57                  0.2746335        58.94959        0.9410569       -27.32779        0.9410569       -27.32779        0.2746386        58.95027
48.76                  0.2756886        58.84854        0.9406841       -27.43878        0.9406841       -27.43878        0.2756937        58.84924
48.95                  0.2767446        58.74737        0.9403102       -27.54979        0.9403102       -27.54979        0.2767498        58.74808
49.14                  0.2778016        58.64607        0.9399351       -27.66082        0.9399351       -27.66082        0.2778068        58.64678
49.33                  0.2788596        58.54464         0.939559       -27.77186         0.939559       -27.77186        0.2788649        58.54534
49.52                  0.2799186        58.44305        0.9391817       -27.88293        0.9391817       -27.88293        0.2799239        58.44377
49.71                  0.2809786        58.34132        0.9388035       -27.99401        0.9388035       -27.99401        0.2809838        58.34203
49.9                   0.2820395        58.23942        0.9384242       -28.10512        0.9384242       -28.10512        0.2820448        58.24015
50.09                  0.2831014        58.13736         0.938044       -28.21625         0.938044       -28.21625        0.2831067        58.13809
50.28                  0.2841642        58.03513        0.9376629        -28.3274        0.9376629        -28.3274        0.2841695        58.03586
50.47                   0.285228        57.93272        0.9372808       -28.43857        0.9372808       -28.43857        0.2852333        57.93347
50.66                  0.2862927        57.83013        0.9368979       -28.54977        0.9368979       -28.54978         0.286298        57.83088
50.85                  0.2873583        57.72735        0.9365142       -28.66101        0.9365142       -28.66101        0.2873636        57.72811
51.04                  0.2884248        57.62438        0.9361296       -28.77227        0.9361296       -28.77227        0.2884302        57.62514
51.23                  0.2894922         57.5212        0.9357444       -28.88356        0.9357444       -28.88356        0.2894976        57.52198
51.42                  0.2905605        57.41783        0.9353582       -28.99489        0.9353582       -28.99489        0.2905659        57.41861
51.61                  0.2916296        57.31425        0.9349714       -29.10625        0.9349714       -29.10625         0.291635        57.31503
51.8                   0.2926996        57.21045        0.9345838       -29.21765        0.9345838       -29.21765        0.2927051        57.21125
51.99                  0.2937704        57.10644        0.9341956       -29.32909        0.9341956       -29.32909        0.2937759        57.10724
52.18                   0.294842        57.00221        0.9338067       -29.44057        0.9338067       -29.44057        0.2948475        57.00302
52.37                  0.2959144        56.89775        0.9334172       -29.55209        0.9334172       -29.55209        0.2959199        56.89857
52.56                  0.2969875        56.79306         0.933027       -29.66366         0.933027       -29.66366        0.2969931        56.79389
52.75                  0.2980614        56.68815        0.9326363       -29.77528        0.9326363       -29.77528         0.298067        56.68898
52.94                   0.299136        56.58299         0.932245       -29.88694        0.9322449       -29.88694        0.2991416        56.58383
53.13                  0.3002113         56.4776         0.931853       -29.99866         0.931853       -29.99866        0.3002169        56.47845
53.32                  0.3012872        56.37196        0.9314606       -30.11043        0.9314606       -30.11043        0.3012929        56.37283
53.51                  0.3023638        56.26609        0.9310675       -30.22226        0.9310676       -30.22226        0.3023695        56.26696
53.7                    0.303441        56.15997        0.9306739       -30.33415        0.9306739       -30.33415        0.3034467        56.16085
53.89                  0.3045187         56.0536        0.9302799        -30.4461        0.9302799        -30.4461        0.3045245        56.05449
54.08                   0.305597        55.94699        0.9298853       -30.55811        0.9298854       -30.55811        0.3056028        55.94789
54.27                  0.3066758        55.84012        0.9294902       -30.67019        0.9294902       -30.67019        0.3066817        55.84103
54.46                  0.3077551          55.733        0.9290946       -30.78234        0.9290946       -30.78234         0.307761        55.73392
54.65                  0.3088349        55.62564        0.9286986       -30.89456        0.9286986       -30.89456        0.3088408        55.62656
54.84                  0.3099151        55.51802        0.9283019       -31.00684        0.9283019       -31.00685        0.3099211        55.51895
55.03                  0.3109958        55.41014        0.9279049       -31.11921        0.9279049       -31.11921        0.3110018        55.41109
55.22                  0.3120768        55.30202        0.9275074       -31.23166        0.9275074       -31.23166        0.3120828        55.30296
55.41                  0.3131581        55.19363        0.9271092        -31.3442        0.9271092        -31.3442        0.3131642        55.19459
55.6                   0.3142397          55.085        0.9267107        -31.4568        0.9267107       -31.45681        0.3142458        55.08596
55.79                  0.3153216         54.9761        0.9263117       -31.56951        0.9263117       -31.56951        0.3153278        54.97708
55.98                  0.3164037        54.86696        0.9259122       -31.68229        0.9259122       -31.68229          0.31641        54.86795
56.17                  0.3174861        54.75757        0.9255121       -31.79517        0.9255121       -31.79517        0.3174924        54.75856
56.36                  0.3185686        54.64793        0.9251116       -31.90815        0.9251116       -31.90815         0.318575        54.64892
56.55                  0.3196513        54.53803        0.9247106       -32.02122        0.9247106       -32.02122        0.3196577        54.53904
56.74                  0.3207341        54.42789         0.924309       -32.13438         0.924309       -32.13438        0.3207406        54.42891
56.93                   0.321817         54.3175        0.9239068       -32.24765        0.9239068       -32.24765        0.3218235        54.31853
57.12                  0.3228999        54.20687        0.9235041       -32.36103        0.9235041       -32.36103        0.3229065        54.20791
57.31                  0.3239829          54.096        0.9231009       -32.47451        0.9231009       -32.47451        0.3239895        54.09704
57.5                   0.3250658        53.98489        0.9226971       -32.58809        0.9226971       -32.58809        0.3250725        53.98594
57.69                  0.3261487        53.87354        0.9222926       -32.70179        0.9222926       -32.70179        0.3261555         53.8746
57.88                  0.3272315        53.76195        0.9218876       -32.81561        0.9218876       -32.81561        0.3272384        53.76302
58.07                  0.3283143        53.65014        0.9214818       -32.92953        0.9214818       -32.92953        0.3283211        53.65121
58.26                  0.3293968        53.53809        0.9210755       -33.04357        0.9210755       -33.04357        0.3294038        53.53917
58.45                  0.3304793        53.42581        0.9206685       -33.15774        0.9206685       -33.15774        0.3304863        53.42691
58.64                  0.3315615        53.31332        0.9202608       -33.27203        0.9202608       -33.27203        0.3315686        53.31442
58.83                  0.3326435         53.2006        0.9198523       -33.38643        0.9198524       -33.38644        0.3326507        53.20171
59.02                  0.3337253        53.08767        0.9194432       -33.50097        0.9194432       -33.50097        0.3337325        53.08879
59.21                  0.3348068        52.97453        0.9190332       -33.61563        0.9190332       -33.61563        0.3348141        52.97565
59.4                    0.335888        52.86117        0.9186225       -33.73042        0.9186225       -33.73043        0.3358953         52.8623
59.59                  0.3369689        52.74761         0.918211       -33.84535         0.918211       -33.84535        0.3369763        52.74875
59.78                  0.3380494        52.63385        0.9177986       -33.96041        0.9177986       -33.96041        0.3380569          52.635
59.97                  0.3391295         52.5199        0.9173852        -34.0756        0.9173852        -34.0756        0.3391371        52.52105
60.16                  0.3402093        52.40575        0.9169711       -34.19093         0.916971       -34.19093        0.3402169        52.40691
60.35                  0.3412887        52.29141        0.9165559        -34.3064        0.9165559        -34.3064        0.3412964        52.29257
60.54                  0.3423675        52.17689        0.9161398         -34.422        0.9161398         -34.422        0.3423753        52.17806
60.73                   0.343446        52.06218        0.9157227       -34.53775        0.9157227       -34.53775        0.3434538        52.06336
60.92                  0.3445239        51.94731        0.9153046       -34.65364        0.9153046       -34.65364        0.3445319        51.94848
61.11                  0.3456014        51.83225        0.9148854       -34.76968        0.9148854       -34.76968        0.3456094        51.83344
61.3                   0.3466783        51.71704        0.9144651       -34.88586        0.9144651       -34.88586        0.3466864        51.71823
61.49                  0.3477548        51.60166        0.9140437       -35.00218        0.9140437       -35.00218        0.3477629        51.60286
61.68                  0.3488307        51.48612        0.9136212       -35.11866        0.9136212       -35.11866        0.3488389        51.48733
61.87                  0.3499059        51.37042        0.9131974       -35.23528        0.9131974       -35.23528        0.3499143        51.37164
62.06                  0.3509807        51.25459        0.9127724       -35.35205        0.9127724       -35.35205        0.3509891        51.25581
62.25                  0.3520548         51.1386        0.9123463       -35.46897        0.9123463       -35.46897        0.3520633        51.13983
62.44                  0.3531284        51.02248        0.9119188       -35.58605        0.9119188       -35.58605        0.3531369        51.02371
62.63                  0.3542013        50.90622        0.9114899       -35.70327        0.9114899       -35.70327          0.35421        50.90746
62.82                  0.3552737        50.78983        0.9110597       -35.82064        0.9110597       -35.82064        0.3552824        50.79107
63.01                  0.3563453        50.67331        0.9106281       -35.93817        0.9106281       -35.93817        0.3563541        50.67456
63.2                   0.3574164        50.55668        0.9101951       -36.05585        0.9101951       -36.05585        0.3574253        50.55793
63.39                  0.3584868        50.43993        0.9097605       -36.17369        0.9097605       -36.17369        0.3584958        50.44118
63.58                  0.3595566        50.32306        0.9093245       -36.29168        0.9093245       -36.29168        0.3595657        50.32432
63.77                  0.3606257        50.20608         0.908887       -36.40983         0.908887       -36.40983        0.3606349        50.20735
63.96                  0.3616943        50.08901        0.9084479       -36.52813        0.9084479       -36.52813        0.3617035        50.09027
64.15                  0.3627621        49.97183        0.9080072       -36.64658        0.9080072       -36.64658        0.3627714         49.9731
64.34                  0.3638293        49.85455        0.9075649       -36.76519        0.9075649       -36.76519        0.3638387        49.85584
64.53                  0.3648958        49.73719        0.9071209       -36.88395        0.9071209       -36.88395        0.3649053        49.73847
64.72                  0.3659617        49.61973        0.9066753       -37.00286        0.9066753       -37.00286        0.3659713        49.62102
64.91                   0.367027         49.5022        0.9062278       -37.12193        0.9062278       -37.12193        0.3670367        49.50349
65.1                   0.3680916        49.38458        0.9057786       -37.24116        0.9057786       -37.24116        0.3681014        49.38588
65.29                  0.3691557        49.26689        0.9053277       -37.36053        0.9053277       -37.36053        0.3691655        49.26819
65.48                   0.370219        49.14913        0.9048749       -37.48006        0.9048749       -37.48006        0.3702289        49.15043
65.67                  0.3712818         49.0313        0.9044203       -37.59975        0.9044203       -37.59975        0.3712918        49.03261
65.86                  0.3723439         48.9134        0.9039637       -37.71958        0.9039637       -37.71958         0.372354         48.9147
66.05                  0.3734055        48.79544        0.9035053       -37.83957        0.9035053       -37.83957        0.3734156        48.79675
66.24                  0.3744664        48.67741        0.9030449        -37.9597        0.9030449        -37.9597        0.3744767        48.67874
66.43                  0.3755268        48.55934        0.9025826       -38.07999        0.9025826       -38.07999        0.3755372        48.56067
66.62                  0.3765866        48.44122        0.9021183       -38.20042        0.9021183       -38.20042        0.3765971        48.44254
66.81                  0.3776459        48.32304        0.9016519         -38.321        0.9016519         -38.321        0.3776564        48.32437
67                     0.3787047        48.20482        0.9011835       -38.44173        0.9011835       -38.44173        0.3787153        48.20615
67.19                  0.3797629        48.08654        0.9007131        -38.5626        0.9007131        -38.5626        0.3797736        48.08788
67.38                  0.3808206        47.96823        0.9002405       -38.68362        0.9002405       -38.68362        0.3808314        47.96957
67.57                  0.3818778        47.84989        0.8997659       -38.80478        0.8997659       -38.80478        0.3818887        47.85122
67.76                  0.3829346         47.7315        0.8992891        -38.9261        0.8992891        -38.9261        0.3829455        47.73284
67.95                  0.3839909        47.61307        0.8988103       -39.04754        0.8988103       -39.04754        0.3840019        47.61441
68.14                  0.3850468        47.49461        0.8983292       -39.16912        0.8983292       -39.16912        0.3850579        47.49596
68.33                  0.3861022        47.37611        0.8978459       -39.29085        0.8978459       -39.29085        0.3861134        47.37747
68.52                  0.3871573        47.25759        0.8973605       -39.41271        0.8973605       -39.41271        0.3871686        47.25895
68.71                   0.388212        47.13904        0.8968728       -39.53471        0.8968727       -39.53471        0.3882234        47.14039
68.9                   0.3892664        47.02046        0.8963829       -39.65684        0.8963829       -39.65684        0.3892778        47.02181
69.09                  0.3903204        46.90184        0.8958908       -39.77911        0.8958908       -39.77911        0.3903319        46.90321
69.28                  0.3913741         46.7832        0.8953963        -39.9015        0.8953963        -39.9015        0.3913857        46.78457
69.47                  0.3924276        46.66454        0.8948997       -40.02404        0.8948997       -40.02404        0.3924393        46.66591
69.66                  0.3934808        46.54585        0.8944008       -40.14669        0.8944008       -40.14669        0.3934926        46.54723
69.85                  0.3945337        46.42713        0.8938996       -40.26947        0.8938996       -40.26947        0.3945455        46.42851
70.04                  0.3955864         46.3084        0.8933961       -40.39238        0.8933961       -40.39239        0.3955984        46.30977
70.23                   0.396639        46.18963        0.8928903       -40.51542        0.8928903       -40.51542         0.396651        46.19101
70.42                  0.3976914        46.07084        0.8923822       -40.63858        0.8923822       -40.63858        0.3977035        46.07222
70.61                  0.3987436        45.95202        0.8918718       -40.76185        0.8918718       -40.76185        0.3987559        45.95341
70.8                   0.3997958        45.83318        0.8913591       -40.88525        0.8913591       -40.88525        0.3998081        45.83457
70.99                  0.4008478        45.71431        0.8908441       -41.00876        0.8908441       -41.00876        0.4008602         45.7157
71.18                  0.4018998        45.59541        0.8903268       -41.13239        0.8903268       -41.13239        0.4019123        45.59681
71.37                  0.4029518        45.47649        0.8898072       -41.25614        0.8898072       -41.25614        0.4029643        45.47789
71.56                  0.4040037        45.35754        0.8892853       -41.37999        0.8892853          -41.38        0.4040164        45.35893
71.75                  0.4050557        45.23855        0.8887611       -41.50396        0.8887611       -41.50396        0.4050684        45.23995
71.94                  0.4061077        45.11953        0.8882346       -41.62804        0.8882346       -41.62804        0.4061204        45.12094
72.13                  0.4071598        45.00048        0.8877058       -41.75222        0.8877058       -41.75222        0.4071726        45.00189
72.32                  0.4082119         44.8814        0.8871747       -41.87653        0.8871747       -41.87653        0.4082248        44.88281
72.51                  0.4092642        44.76228        0.8866414       -42.00093        0.8866414       -42.00093        0.4092772        44.76369
72.7                   0.4103166        44.64311        0.8861059       -42.12543        0.8861059       -42.12543        0.4103297        44.64453
72.89                  0.4113691        44.52391         0.885568       -42.25004         0.885568       -42.25004        0.4113823        44.52533
73.08                  0.4124219        44.40466        0.8850279       -42.37473        0.8850279       -42.37473        0.4124351        44.40608
73.27                  0.4134748        44.28537        0.8844857       -42.49953        0.8844857       -42.49953        0.4134882         44.2868
73.46                   0.414528        44.16603        0.8839412       -42.62442        0.8839412       -42.62442        0.4145414        44.16746
73.65                  0.4155814        44.04664        0.8833944       -42.74943        0.8833944       -42.74943        0.4155949        44.04808
73.84                  0.4166351         43.9272        0.8828456       -42.87451        0.8828456       -42.87451        0.4166487        43.92863
74.03                  0.4176891         43.8077        0.8822945       -42.99972        0.8822945       -42.99972        0.4177028        43.80913
74.22                  0.4187434        43.68814        0.8817414       -43.12501        0.8817414       -43.12501        0.4187571        43.68958
74.41                  0.4197981        43.56852        0.8811861       -43.25036        0.8811861       -43.25036        0.4198118        43.56996
74.6                    0.420853        43.44883        0.8806286       -43.37582        0.8806286       -43.37582        0.4208669        43.45028
74.79                  0.4219084        43.32908        0.8800691       -43.50138        0.8800691       -43.50138        0.4219224        43.33053
74.98                  0.4229641        43.20925        0.8795076       -43.62701        0.8795076       -43.62701        0.4229781        43.21071
75.17                  0.4240203        43.08935         0.878944       -43.75273         0.878944       -43.75273        0.4240344        43.09081
75.36                  0.4250769        42.96937        0.8783784       -43.87855        0.8783784       -43.87855         0.425091        42.97084
75.55                  0.4261339        42.84931        0.8778107       -44.00447        0.8778107       -44.00447        0.4261481        42.85078
75.74                  0.4271913        42.72916        0.8772413       -44.13044        0.8772413       -44.13044        0.4272056        42.73064
75.93                  0.4282492        42.60893        0.8766697        -44.2565        0.8766697        -44.2565        0.4282636        42.61041
76.12                  0.4293076         42.4886        0.8760963       -44.38264        0.8760963       -44.38264        0.4293221        42.49008
76.31                  0.4303665        42.36818         0.875521       -44.50889         0.875521       -44.50889         0.430381        42.36966
76.5                   0.4314258        42.24765        0.8749438        -44.6352        0.8749438        -44.6352        0.4314404        42.24914
76.69                  0.4324857        42.12702        0.8743648       -44.76155        0.8743648       -44.76155        0.4325003        42.12852
76.88                  0.4335461        42.00629        0.8737839       -44.88807        0.8737839       -44.88807        0.4335608        42.00778
77.07                   0.434607        41.88543        0.8732014       -45.01462        0.8732014       -45.01462        0.4346218        41.88694
77.26                  0.4356684        41.76447         0.872617       -45.14123         0.872617       -45.14123        0.4356833        41.76599
77.45                  0.4367304        41.64338         0.872031       -45.26797         0.872031       -45.26797        0.4367453         41.6449
77.64                  0.4377928        41.52217        0.8714432       -45.39474        0.8714432       -45.39474        0.4378079         41.5237
77.83                  0.4388559        41.40083        0.8708538       -45.52164        0.8708538       -45.52164         0.438871        41.40237
78.02                  0.4399195        41.27936        0.8702628        -45.6486        0.8702628        -45.6486        0.4399346         41.2809
78.21                  0.4409835        41.15776          0.86967       -45.77564          0.86967       -45.77564        0.4409988         41.1593
78.4                   0.4420482        41.03601        0.8690758       -45.90275        0.8690758       -45.90275        0.4420635        41.03757
78.59                  0.4431134        40.91414        0.8684801       -46.02994        0.8684801       -46.02994        0.4431288         40.9157
78.78                  0.4441791        40.79209        0.8678828       -46.15722        0.8678828       -46.15722        0.4441946        40.79365
78.97                  0.4452454        40.66988         0.867284       -46.28458         0.867284       -46.28458        0.4452609        40.67147
79.16                  0.4463122        40.54755        0.8666839       -46.41201        0.8666839       -46.41201        0.4463278        40.54913
79.35                  0.4473795        40.42504        0.8660822       -46.53954        0.8660822       -46.53954        0.4473952        40.42662
79.54                  0.4484473         40.3024        0.8654791       -46.66715        0.8654791       -46.66715        0.4484631        40.30398
79.73                  0.4495156        40.17956        0.8648748       -46.79484        0.8648748       -46.79484        0.4495315        40.18114
79.92                  0.4505845        40.05653        0.8642691       -46.92261        0.8642691       -46.92261        0.4506004        40.05817
80.11                  0.4516537        39.93337        0.8636621       -47.05047        0.8636621       -47.05047        0.4516698        39.93498
80.3                   0.4527235        39.81002        0.8630539       -47.17841        0.8630539       -47.17841        0.4527396        39.81163
80.49                  0.4537937         39.6865        0.8624443       -47.30644        0.8624443       -47.30644        0.4538099        39.68812
80.68                  0.4548644        39.56277        0.8618336       -47.43456        0.8618336       -47.43456        0.4548807        39.56438
80.87                  0.4559355        39.43887        0.8612217       -47.56277        0.8612217       -47.56277        0.4559519        39.44048
81.06                   0.457007        39.31475        0.8606086       -47.69107        0.8606086       -47.69107        0.4570235        39.31642
81.25                   0.458079        39.19047        0.8599944       -47.81946        0.8599944       -47.81946        0.4580955        39.19214
81.44                  0.4591513        39.06597         0.859379       -47.94794         0.859379       -47.94794        0.4591679        39.06766
81.63                  0.4602239        38.94128        0.8587627       -48.07652        0.8587627       -48.07652        0.4602406        38.94297
81.82                  0.4612969        38.81637        0.8581453        -48.2052        0.8581453        -48.2052        0.4613137        38.81808
82.01                  0.4623702        38.69129        0.8575268       -48.33397        0.8575268       -48.33397        0.4623871        38.69296
82.2                   0.4634438        38.56597        0.8569072       -48.46284        0.8569072       -48.46284        0.4634608        38.56769
82.39                  0.4645176        38.44046        0.8562868       -48.59181        0.8562868       -48.59181        0.4645347        38.44218
82.58                  0.4655918         38.3147        0.8556654       -48.72089        0.8556654       -48.72089        0.4656089        38.31645
82.77                  0.4666661        38.18875         0.855043       -48.85007         0.855043       -48.85007        0.4666833         38.1905
82.96                  0.4677406        38.06259        0.8544197       -48.97936        0.8544197       -48.97936        0.4677579        38.06431
83.15                  0.4688153         37.9362        0.8537955       -49.10875        0.8537955       -49.10875        0.4688327        37.93792
83.34                  0.4698901        37.80957        0.8531705       -49.23825        0.8531705       -49.23825        0.4699077        37.81132
83.53                  0.4709651        37.68272        0.8525445       -49.36787        0.8525446       -49.36787        0.4709827        37.68447
83.72                  0.4720401        37.55562        0.8519177       -49.49761        0.8519177       -49.49761        0.4720578         37.5574
83.91                  0.4731151        37.42834        0.8512902       -49.62746        0.8512902       -49.62746         0.473133        37.43012
84.1                   0.4741902        37.30081        0.8506618       -49.75742        0.8506618       -49.75742        0.4742081         37.3026
84.29                  0.4752653        37.17305        0.8500325       -49.88751        0.8500325       -49.88751        0.4752833        37.17485
84.48                  0.4763403        37.04505        0.8494025       -50.01772        0.8494025       -50.01773        0.4763585        37.04686
84.67                  0.4774153        36.91682        0.8487718       -50.14806        0.8487718       -50.14806        0.4774335        36.91863
84.86                  0.4784901        36.78835        0.8481402       -50.27852        0.8481402       -50.27852        0.4785084        36.79018
85.05                  0.4795648        36.65964        0.8475079       -50.40912        0.8475079       -50.40912        0.4795832        36.66148
85.24                  0.4806393        36.53069        0.8468749       -50.53985        0.8468749       -50.53985        0.4806579        36.53255
85.43                  0.4817136        36.40152        0.8462411       -50.67071        0.8462411       -50.67071        0.4817323        36.40337
85.62                  0.4827877         36.2721        0.8456066       -50.80171        0.8456066       -50.80171        0.4828065        36.27396
85.81                  0.4838614        36.14244        0.8449714       -50.93285        0.8449714       -50.93285        0.4838803        36.14431
86                     0.4849349        36.01253        0.8443354       -51.06413        0.8443354       -51.06413        0.4849539        36.01443
86.19                   0.486008        35.88239        0.8436987       -51.19556        0.8436987       -51.19556        0.4860271         35.8843
86.38                  0.4870807        35.75202        0.8430613       -51.32714        0.8430613       -51.32714        0.4870999        35.75393
86.57                  0.4881529         35.6214        0.8424233       -51.45886        0.8424233       -51.45886        0.4881723        35.62331
86.76                  0.4892247        35.49054        0.8417844       -51.59074        0.8417844       -51.59074        0.4892443        35.49247
86.95                  0.4902961        35.35944        0.8411448       -51.72277        0.8411448       -51.72277        0.4903157        35.36138
87.14                  0.4913669        35.22811        0.8405046       -51.85496        0.8405046       -51.85496        0.4913866        35.23006
87.33                  0.4924371        35.09653        0.8398637       -51.98731        0.8398637       -51.98731        0.4924569        35.09849
87.52                  0.4935067        34.96472        0.8392219       -52.11982        0.8392219       -52.11982        0.4935266        34.96669
87.71                  0.4945756        34.83267        0.8385795        -52.2525        0.8385795        -52.2525        0.4945957        34.83465
87.9                   0.4956439        34.70038        0.8379364       -52.38534        0.8379364       -52.38535        0.4956641        34.70238
88.09                  0.4967115        34.56786        0.8372925       -52.51836        0.8372925       -52.51836        0.4967318        34.56987
88.28                  0.4977783        34.43511        0.8366478       -52.65154        0.8366478       -52.65154        0.4977987        34.43713
88.47                  0.4988443        34.30213        0.8360023        -52.7849        0.8360023        -52.7849        0.4988649        34.30415
88.66                  0.4999095        34.16891        0.8353561       -52.91844        0.8353561       -52.91844        0.4999302        34.17095
88.85                  0.5009738        34.03547        0.8347092       -53.05216        0.8347092       -53.05216        0.5009947        34.03751
89.04                  0.5020372        33.90179        0.8340613       -53.18606        0.8340613       -53.18606        0.5020583        33.90385
89.23                  0.5030997         33.7679        0.8334127       -53.32014        0.8334127       -53.32014        0.5031209        33.76996
89.42                  0.5041613        33.63378        0.8327633       -53.45441        0.8327633       -53.45441        0.5041826        33.63585
89.61                  0.5052218        33.49943         0.832113       -53.58888         0.832113       -53.58888        0.5052433        33.50152
89.8                   0.5062814        33.36486        0.8314618       -53.72352        0.8314618       -53.72353         0.506303        33.36697
89.99                  0.5073399        33.23008        0.8308098       -53.85837        0.8308098       -53.85837        0.5073616        33.23219
90.18                  0.5083973        33.09509        0.8301568        -53.9934        0.8301568        -53.9934        0.5084192         33.0972
90.37                  0.5094535        32.95987        0.8295029       -54.12864        0.8295029       -54.12864        0.5094755          32.962
90.56                  0.5105087        32.82445        0.8288481       -54.26407        0.8288481       -54.26407        0.5105308         32.8266
90.75                  0.5115626        32.68882        0.8281923       -54.39971        0.8281923       -54.39971        0.5115849        32.69097
90.94                  0.5126153        32.55298        0.8275356       -54.53555        0.8275356       -54.53555        0.5126378        32.55514
91.13                  0.5136669        32.41694        0.8268778       -54.67159        0.8268778       -54.67159        0.5136894        32.41911
91.32                  0.5147171         32.2807         0.826219       -54.80784         0.826219       -54.80784        0.5147398        32.28288
91.51                   0.515766        32.14426        0.8255591        -54.9443        0.8255591        -54.9443        0.5157889        32.14645
91.7                   0.5168137        32.00762        0.8248982       -55.08096        0.8248982       -55.08096        0.5168368        32.00983
91.89                    0.51786        31.87079        0.8242362       -55.21784        0.8242362       -55.21784        0.5178832        31.87301
92.08                  0.5189049        31.73377        0.8235731       -55.35493        0.8235731       -55.35493        0.5189283          31.736
92.27                  0.5199485        31.59656        0.8229087       -55.49224        0.8229087       -55.49224         0.519972         31.5988
92.46                  0.5209906        31.45917        0.8222432       -55.62976        0.8222432       -55.62976        0.5210143        31.46142
92.65                  0.5220314         31.3216        0.8215765        -55.7675        0.8215765        -55.7675        0.5220552        31.32385
92.84                  0.5230706        31.18384        0.8209085       -55.90546        0.8209085       -55.90546        0.5230947        31.18611
93.03                  0.5241085        31.04592        0.8202394       -56.04363        0.8202394       -56.04363        0.5241327         31.0482
93.22                  0.5251448        30.90782        0.8195689       -56.18203        0.8195689       -56.18203        0.5251692        30.91011
93.41                  0.5261797        30.76955        0.8188971       -56.32065        0.8188971       -56.32065        0.5262042        30.77185
93.6                   0.5272131        30.63111        0.8182239       -56.45949        0.8182239       -56.45949        0.5272377        30.63342
93.79                  0.5282448        30.49251        0.8175494       -56.59856        0.8175494       -56.59856        0.5282697        30.49483
93.98                  0.5292751        30.35375        0.8168734       -56.73784        0.8168734       -56.73784        0.5293001        30.35608
94.17                  0.5303039        30.21483         0.816196       -56.87735         0.816196       -56.87735        0.5303291        30.21717
94.36                   0.531331        30.07576        0.8155172       -57.01709        0.8155172       -57.01709        0.5313565        30.07811
94.55                  0.5323567        29.93654        0.8148369       -57.15705        0.8148369       -57.15705        0.5323822         29.9389
94.74                  0.5333807        29.79717        0.8141551       -57.29723        0.8141551       -57.29723        0.5334064        29.79954
94.93                  0.5344031        29.65765        0.8134717       -57.43765        0.8134717       -57.43765        0.5344291        29.66002
95.12                  0.5354241        29.51798        0.8127868       -57.57829        0.8127868       -57.57829        0.5354501        29.52037
95.31                  0.5364433        29.37818        0.8121002       -57.71916        0.8121002       -57.71916        0.5364695        29.38058
95.5                    0.537461        29.23824        0.8114121       -57.86025        0.8114121       -57.86025        0.5374874        29.24066
95.69                   0.538477        29.09817        0.8107223       -58.00156        0.8107223       -58.00156        0.5385036        29.10059
95.88                  0.5394915        28.95797        0.8100307        -58.1431        0.8100307        -58.1431        0.5395183        28.96039
96.07                  0.5405044        28.81763        0.8093376       -58.28488        0.8093376       -58.28488        0.5405314        28.82007
96.26                  0.5415157        28.67717        0.8086427       -58.42687        0.8086427       -58.42687        0.5415428        28.67962
96.45                  0.5425253        28.53659         0.807946        -58.5691         0.807946        -58.5691        0.5425527        28.53905
96.64                  0.5435334        28.39588        0.8072476       -58.71154        0.8072476       -58.71154         0.543561        28.39835
96.83                    0.54454        28.25506        0.8065474       -58.85421        0.8065474       -58.85421        0.5445676        28.25754
97.02                  0.5455449        28.11412        0.8058452        -58.9971        0.8058453        -58.9971        0.5455727        28.11661
97.21                  0.5465482        27.97307        0.8051413       -59.14022        0.8051413       -59.14022        0.5465763        27.97556
97.4                     0.54755         27.8319        0.8044355       -59.28355        0.8044355       -59.28355        0.5475782        27.83441
97.59                  0.5485502        27.69062        0.8037279       -59.42712        0.8037279       -59.42712        0.5485785        27.69314
97.78                  0.5495488        27.54924        0.8030183        -59.5709        0.8030183        -59.5709        0.5495774        27.55177
97.97                  0.5505459        27.40775        0.8023069        -59.7149        0.8023069        -59.7149        0.5505747        27.41029
98.16                  0.5515415        27.26616        0.8015935       -59.85911        0.8015935       -59.85911        0.5515705         27.2687
98.35                  0.5525355        27.12446         0.800878       -60.00355        0.8008779       -60.00355        0.5525647        27.12702
98.54                  0.5535281        26.98266        0.8001607        -60.1482        0.8001607        -60.1482        0.5535574        26.98523
98.73                  0.5545192        26.84077        0.7994413       -60.29305        0.7994413       -60.29306        0.5545487        26.84334
98.92                  0.5555087        26.69878          0.79872       -60.43813          0.79872       -60.43813        0.5555385        26.70136
99.11                  0.5564969        26.55668        0.7979966       -60.58342        0.7979966       -60.58342        0.5565268        26.55928
99.3                   0.5574836         26.4145        0.7972712       -60.72892        0.7972712       -60.72892        0.5575136         26.4171
99.49                  0.5584688        26.27222        0.7965437       -60.87462        0.7965437       -60.87462        0.5584991        26.27483
99.68                  0.5594527        26.12985        0.7958143       -61.02053        0.7958143       -61.02053        0.5594832        26.13247
99.87                  0.5604352        25.98739        0.7950828       -61.16665        0.7950828       -61.16665        0.5604658        25.99002
100.06                 0.5614163        25.84483        0.7943491       -61.31297        0.7943491       -61.31297        0.5614471        25.84747
100.25                  0.562396        25.70219        0.7936135        -61.4595        0.7936135        -61.4595        0.5624271        25.70483
100.44                 0.5633744        25.55945        0.7928758       -61.60622        0.7928758       -61.60622        0.5634056        25.56211
100.63                 0.5643515        25.41662        0.7921359       -61.75314        0.7921359       -61.75314         0.564383        25.41929
100.82                 0.5653274        25.27371        0.7913941       -61.90026        0.7913941       -61.90026         0.565359        25.27638
101.01                 0.5663019         25.1307        0.7906502       -62.04757        0.7906502       -62.04757        0.5663337        25.13338
101.2                  0.5672752        24.98761        0.7899042       -62.19507        0.7899042       -62.19507        0.5673073         24.9903
101.39                 0.5682473        24.84442        0.7891562       -62.34276        0.7891562       -62.34276        0.5682795        24.84713
101.58                 0.5692182        24.70114         0.788406       -62.49065         0.788406       -62.49065        0.5692506        24.70386
101.77                  0.570188        24.55778        0.7876538       -62.63871        0.7876538       -62.63871        0.5702205        24.56051
101.96                 0.5711565        24.41432        0.7868996       -62.78697        0.7868996       -62.78697        0.5711892        24.41706
102.15                  0.572124        24.27078        0.7861433        -62.9354        0.7861433        -62.9354         0.572157        24.27352
102.34                 0.5730903        24.12714        0.7853851       -63.08402        0.7853851       -63.08402        0.5731235        24.12989
102.53                 0.5740556         23.9834        0.7846248       -63.23281        0.7846248       -63.23281        0.5740889        23.98617
102.72                 0.5750198        23.83958        0.7838625       -63.38179        0.7838625       -63.38179        0.5750534        23.84235
102.91                  0.575983        23.69565        0.7830982       -63.53092        0.7830982       -63.53092        0.5760167        23.69843
103.1                  0.5769451        23.55164        0.7823319       -63.68024        0.7823319       -63.68024        0.5769791        23.55443
103.29                 0.5779063        23.40752        0.7815637       -63.82973        0.7815637       -63.82973        0.5779404        23.41032
103.48                 0.5788665         23.2633        0.7807936       -63.97938        0.7807936       -63.97938        0.5789009        23.26611
103.67                 0.5798258        23.11898        0.7800215        -64.1292        0.7800215        -64.1292        0.5798604         23.1218
103.86                 0.5807842        22.97456        0.7792475       -64.27918        0.7792475       -64.27918         0.580819        22.97739
104.05                 0.5817417        22.83003        0.7784717       -64.42933        0.7784717       -64.42933        0.5817766        22.83287
104.24                 0.5826982        22.68539        0.7776941       -64.57963        0.7776941       -64.57963        0.5827334        22.68824
104.43                 0.5836539        22.54065        0.7769146       -64.73009        0.7769146       -64.73009        0.5836893        22.54351
104.62                 0.5846089        22.39579        0.7761334        -64.8807        0.7761334        -64.8807        0.5846444        22.39866
104.81                 0.5855629        22.25082        0.7753504       -65.03148        0.7753504       -65.03149        0.5855987         22.2537
105                    0.5865162        22.10573        0.7745657       -65.18241        0.7745657       -65.18241        0.5865522        22.10862
105.19                 0.5874688        21.96052        0.7737793       -65.33348        0.7737793       -65.33348        0.5875049        21.96342
105.38                 0.5884205        21.81519        0.7729912       -65.48471        0.7729912       -65.48471        0.5884568         21.8181
105.57                 0.5893715        21.66974        0.7722015       -65.63607        0.7722015       -65.63607        0.5894081        21.67265
105.76                 0.5903219        21.52415        0.7714103        -65.7876        0.7714103        -65.7876        0.5903586        21.52708
105.95                 0.5912714        21.37844        0.7706174       -65.93925        0.7706174       -65.93925        0.5913083        21.38138
106.14                 0.5922203        21.23259         0.769823       -66.09106         0.769823       -66.09106        0.5922575        21.23554
106.33                 0.5931685         21.0866        0.7690272       -66.24301        0.7690272       -66.24301        0.5932059        21.08956
106.52                 0.5941161        20.94047          0.76823       -66.39509        0.7682299       -66.39509        0.5941536        20.94345
106.71                  0.595063         20.7942        0.7674314       -66.54732        0.7674314       -66.54732        0.5951008        20.79719
106.9                  0.5960092        20.64778        0.7666314       -66.69968        0.7666314       -66.69968        0.5960472        20.65078
107.09                 0.5969548         20.5012        0.7658302       -66.85218        0.7658302       -66.85218         0.596993        20.50421
107.28                 0.5978999        20.35448        0.7650276       -67.00481        0.7650276       -67.00481        0.5979383         20.3575
107.47                 0.5988441        20.20759        0.7642239       -67.15757        0.7642239       -67.15757        0.5988828        20.21062
107.66                  0.599788        20.06054         0.763419       -67.31048         0.763419       -67.31048        0.5998268        20.06359
107.85                 0.6007311        19.91333        0.7626131       -67.46351        0.7626131       -67.46351        0.6007701        19.91638
108.04                 0.6016736        19.76594         0.761806       -67.61669         0.761806       -67.61669        0.6017128        19.76901
108.23                 0.6026155        19.61838        0.7609979       -67.76998        0.7609979       -67.76998         0.602655        19.62146
108.42                 0.6035569        19.47064        0.7601889       -67.92342        0.7601889       -67.92342        0.6035965        19.47373
108.61                 0.6044976        19.32272         0.759379       -68.07697         0.759379       -68.07697        0.6045374        19.32582
108.8                  0.6054376        19.17461        0.7585682       -68.23067        0.7585682       -68.23067        0.6054777        19.17772
108.99                 0.6063771        19.02631        0.7577566       -68.38449        0.7577566       -68.38449        0.6064174        19.02944
109.18                  0.607316        18.87781        0.7569443       -68.53844        0.7569443       -68.53844        0.6073565        18.88095
109.37                 0.6082543        18.72912        0.7561313       -68.69254        0.7561313       -68.69254         0.608295        18.73227
109.56                 0.6091919        18.58022        0.7553176       -68.84675        0.7553176       -68.84675        0.6092327        18.58338
109.75                 0.6101289        18.43111        0.7545034        -69.0011        0.7545034        -69.0011        0.6101699        18.43429
109.94                 0.6110651         18.2818        0.7536886       -69.15558        0.7536886       -69.15558        0.6111064        18.28499
110.13                 0.6120007        18.13226        0.7528733        -69.3102        0.7528733        -69.3102        0.6120423        18.13547
110.32                 0.6129356        17.98251        0.7520576       -69.46494        0.7520576       -69.46494        0.6129775        17.98573
110.51                 0.6138699        17.83253        0.7512416       -69.61982        0.7512416       -69.61982        0.6139119        17.83576
110.7                  0.6148034        17.68233        0.7504252       -69.77484        0.7504252       -69.77484        0.6148456        17.68557
110.89                 0.6157362        17.53189        0.7496086          -69.93        0.7496086          -69.93        0.6157786        17.53515
111.08                 0.6166681        17.38121        0.7487918       -70.08529        0.7487918       -70.08529        0.6167108        17.38449
111.27                 0.6175994        17.23029        0.7479748       -70.24072        0.7479748       -70.24072        0.6176423        17.23358
111.46                 0.6185298        17.07913        0.7471578        -70.3963        0.7471578        -70.3963        0.6185729        17.08243
111.65                 0.6194594        16.92772        0.7463408       -70.55201        0.7463408       -70.55201        0.6195027        16.93104
111.84                 0.6203881        16.77605        0.7455237       -70.70787        0.7455237       -70.70787        0.6204316        16.77938
112.03                 0.6213159        16.62413        0.7447068       -70.86387        0.7447068       -70.86387        0.6213596        16.62748
112.22                 0.6222427        16.47195        0.7438899       -71.02003        0.7438899       -71.02003        0.6222867        16.47531
112.41                 0.6231687         16.3195        0.7430733       -71.17634        0.7430733       -71.17634        0.6232128        16.32288
112.6                  0.6240936        16.16679        0.7422569        -71.3328        0.7422569        -71.3328        0.6241381        16.17017
112.79                 0.6250175        16.01379        0.7414407       -71.48942        0.7414407       -71.48942        0.6250622         16.0172
112.98                 0.6259402        15.86053        0.7406251       -71.64618         0.740625       -71.64618        0.6259852        15.86395
113.17                 0.6268619        15.70698        0.7398097       -71.80312        0.7398097       -71.80312        0.6269071        15.71042
113.36                 0.6277824        15.55315        0.7389949       -71.96022        0.7389949       -71.96022        0.6278279        15.55661
113.55                 0.6287018        15.39904        0.7381805       -72.11749        0.7381805       -72.11749        0.6287475        15.40251
113.74                 0.6296199        15.24464        0.7373667       -72.27492        0.7373667       -72.27492        0.6296658        15.24812
113.93                 0.6305367        15.08994        0.7365534       -72.43252        0.7365534       -72.43252        0.6305829        15.09344
114.12                 0.6314522        14.93495        0.7357408       -72.59031        0.7357408       -72.59031        0.6314986        14.93847
114.31                 0.6323663        14.77965        0.7349289       -72.74828        0.7349289       -72.74828         0.632413        14.78319
114.5                   0.633279        14.62406        0.7341178       -72.90642        0.7341178       -72.90642        0.6333259        14.62761
114.69                 0.6341902        14.46816        0.7333074       -73.06477        0.7333074       -73.06477        0.6342373        14.47173
114.88                 0.6350998        14.31195        0.7324979       -73.22329        0.7324979       -73.22329        0.6351473        14.31554
115.07                 0.6360078        14.15544        0.7316893       -73.38201        0.7316892       -73.38201        0.6360555        14.15904
115.26                 0.6369143        13.99861        0.7308815       -73.54093        0.7308815       -73.54093        0.6369622        14.00223
115.45                  0.637819        13.84146        0.7300747       -73.70006        0.7300747       -73.70006        0.6378672         13.8451
115.64                 0.6387219          13.684         0.729269       -73.85939         0.729269       -73.85939        0.6387703        13.68766
115.83                  0.639623        13.52622        0.7284642       -74.01894        0.7284642       -74.01894        0.6396718         13.5299
116.02                 0.6405223        13.36812        0.7276605        -74.1787        0.7276605        -74.1787        0.6405712        13.37181
116.21                 0.6414196         13.2097         0.726858       -74.33869         0.726858       -74.33869        0.6414688        13.21341
116.4                  0.6423149        13.05095        0.7260565       -74.49889        0.7260565       -74.49889        0.6423645        13.05468
116.59                 0.6432081        12.89188        0.7252563       -74.65933        0.7252562       -74.65933        0.6432579        12.89563
116.78                 0.6440993        12.73248        0.7244571       -74.82001        0.7244571       -74.82001        0.6441494        12.73625
116.97                 0.6449882        12.57275        0.7236593       -74.98093        0.7236593       -74.98093        0.6450385        12.57654
117.16                 0.6458749        12.41269        0.7228627       -75.14208        0.7228627       -75.14208        0.6459255         12.4165
117.35                 0.6467593         12.2523        0.7220674        -75.3035        0.7220674        -75.3035        0.6468101        12.25613
117.54                 0.6476413        12.09159        0.7212734       -75.46516        0.7212734       -75.46516        0.6476924        12.09543
117.73                 0.6485207        11.93054        0.7204807       -75.62709        0.7204807       -75.62709        0.6485722         11.9344
117.92                 0.6493977        11.76915        0.7196894       -75.78928        0.7196894       -75.78928        0.6494495        11.77303
118.11                 0.6502721        11.60744        0.7188994       -75.95174        0.7188994       -75.95174        0.6503242        11.61133
118.3                  0.6511439        11.44539        0.7181108       -76.11449        0.7181108       -76.11449        0.6511962        11.44931
118.49                 0.6520129        11.28301        0.7173236        -76.2775        0.7173236        -76.2775        0.6520655        11.28694
118.68                 0.6528791        11.12029        0.7165378       -76.44082        0.7165378       -76.44082         0.652932        11.12425
118.87                 0.6537425        10.95725        0.7157535       -76.60442        0.7157535       -76.60442        0.6537957        10.96122
119.06                  0.654603        10.79387        0.7149705       -76.76832        0.7149705       -76.76832        0.6546565        10.79787
119.25                 0.6554604        10.63016        0.7141891       -76.93252        0.7141891       -76.93252        0.6555142        10.63418
119.44                 0.6563147        10.46612         0.713409       -77.09703         0.713409       -77.09703        0.6563689        10.47016
119.63                  0.657166        10.30175        0.7126305       -77.26186        0.7126305       -77.26186        0.6572205        10.30581
119.82                  0.658014        10.13705        0.7118533         -77.427        0.7118533         -77.427        0.6580689        10.14113
120.01                 0.6588588        9.972024        0.7110777       -77.59247        0.7110777       -77.59247        0.6589139        9.976124
120.2                  0.6597002        9.806672        0.7103035       -77.75828        0.7103035       -77.75828        0.6597556         9.81079
120.39                 0.6605382        9.640995        0.7095307       -77.92442        0.7095307       -77.92442         0.660594        9.645134
120.58                 0.6613728        9.474995        0.7087595       -78.09088        0.7087594       -78.09088        0.6614289        9.479154
120.77                 0.6622037        9.308673        0.7079896        -78.2577        0.7079896        -78.2577        0.6622602        9.312854
120.96                 0.6630312        9.142031        0.7072213       -78.42488        0.7072212       -78.42488         0.663088        9.146233
121.15                 0.6638549        8.975071        0.7064543       -78.59241        0.7064543       -78.59241         0.663912        8.979294
121.34                 0.6646749        8.807796        0.7056888       -78.76029        0.7056888       -78.76029        0.6647323         8.81204
121.53                 0.6654911        8.640207        0.7049247       -78.92856        0.7049246       -78.92856        0.6655489        8.644472
121.72                 0.6663034        8.472308         0.704162       -79.09719         0.704162       -79.09719        0.6663616        8.476595
121.91                 0.6671118        8.304101        0.7034007       -79.26619        0.7034007       -79.26619        0.6671703        8.308408
122.1                  0.6679162        8.135587        0.7026407       -79.43558        0.7026407       -79.43558        0.6679751        8.139915
122.29                 0.6687166        7.966769        0.7018822       -79.60538        0.7018821       -79.60538        0.6687758         7.97112
122.48                 0.6695129        7.797651        0.7011249       -79.77553        0.7011249       -79.77553        0.6695724        7.802023
122.67                  0.670305        7.628237         0.700369        -79.9461         0.700369        -79.9461         0.670365        7.632628
122.86                  0.671093        7.458526        0.6996144       -80.11707        0.6996144       -80.11707        0.6711533         7.46294
123.05                 0.6718766        7.288526        0.6988611       -80.28845        0.6988611       -80.28845        0.6719373        7.292961
123.24                 0.6726559        7.118236        0.6981089       -80.46025        0.6981089       -80.46025         0.672717        7.122693
123.43                 0.6734309        6.947663        0.6973581       -80.63245        0.6973581       -80.63245        0.6734923        6.952141
123.62                 0.6742015        6.776807        0.6966084       -80.80506        0.6966084       -80.80506        0.6742632        6.781308
123.81                 0.6749675        6.605673          0.69586       -80.97808          0.69586       -80.97808        0.6750297        6.610195
124                    0.6757291        6.434264        0.6951127       -81.15154        0.6951127       -81.15154        0.6757916         6.43881
124.19                 0.6764861        6.262586        0.6943666       -81.32544        0.6943666       -81.32544         0.676549        6.267152
124.38                 0.6772385        6.090638        0.6936214       -81.49977        0.6936214       -81.49977        0.6773017        6.095227
124.57                 0.6779862        5.918429        0.6928775       -81.67457        0.6928775       -81.67457        0.6780499        5.923038
124.76                 0.6787292        5.745958        0.6921345       -81.84975        0.6921345       -81.84975        0.6787933         5.75059
124.95                 0.6794676        5.573232        0.6913926       -82.02543        0.6913925       -82.02543        0.6795321        5.577885
125.14                 0.6802012        5.400254        0.6906516       -82.20151        0.6906516       -82.20151        0.6802661        5.404929
125.33                   0.68093        5.227025        0.6899116       -82.37805        0.6899116       -82.37805        0.6809952        5.231724
125.52                 0.6816539        5.053554        0.6891725       -82.55507        0.6891725       -82.55507        0.6817196        5.058273
125.71                  0.682373        4.879841        0.6884343       -82.73251        0.6884343       -82.73251        0.6824391        4.884582
125.9                  0.6830872        4.705891        0.6876969       -82.91043        0.6876969       -82.91043        0.6831538        4.710654
126.09                 0.6837965        4.531708        0.6869604        -83.0888        0.6869604        -83.0888        0.6838635        4.536494
126.28                 0.6845009        4.357297        0.6862247       -83.26765        0.6862247       -83.26765        0.6845682        4.362103
126.47                 0.6852003        4.182659        0.6854897       -83.44692        0.6854897       -83.44692         0.685268        4.187489
126.66                 0.6858947          4.0078        0.6847556       -83.62672        0.6847556       -83.62672        0.6859629        4.012652
126.85                 0.6865841        3.832724        0.6840221       -83.80696        0.6840221       -83.80696        0.6866528        3.837597
127.04                 0.6872686        3.657433        0.6832892       -83.98763        0.6832892       -83.98763        0.6873376        3.662329
127.23                  0.687948        3.481933        0.6825571       -84.16879         0.682557       -84.16882        0.6880175         3.48685
127.42                 0.6886223        3.306226        0.6818255       -84.35048        0.6818255       -84.35048        0.6886922        3.311165
127.61                 0.6892917        3.130316        0.6810944       -84.53257        0.6810944       -84.53257         0.689362        3.135277
127.8                   0.689956        2.954207        0.6803641       -84.71515        0.6803641       -84.71515        0.6900267         2.95919
127.99                 0.6906152        2.777902        0.6796342        -84.8982        0.6796342        -84.8982        0.6906863        2.782908
128.18                 0.6912693        2.601405        0.6789048       -85.08172        0.6789047       -85.08172        0.6913409        2.606433
128.37                 0.6919185        2.424719        0.6781759       -85.26575        0.6781759       -85.26575        0.6919905        2.429769
128.56                 0.6925625        2.247848        0.6774475       -85.45022        0.6774475       -85.45022        0.6926351         2.25292
128.75                 0.6932015        2.070794        0.6767196       -85.63515        0.6767196       -85.63515        0.6932745        2.075888
128.94                 0.6938355         1.89356         0.675992       -85.82058         0.675992       -85.82058        0.6939088        1.898677
129.13                 0.6944644        1.716151        0.6752648        -86.0065        0.6752648        -86.0065        0.6945382        1.721289
129.32                 0.6950882        1.538567        0.6745381       -86.19285        0.6745381       -86.19285        0.6951626        1.543727
129.51                 0.6957071        1.360812        0.6738117        -86.3797        0.6738117        -86.3797         0.695782        1.365995
129.7                   0.696321        1.182889        0.6730856       -86.56698        0.6730856       -86.56698        0.6963963        1.188094
129.89                 0.6969299          1.0048          0.67236       -86.75476          0.67236       -86.75476        0.6970056        1.010027
130.08                 0.6975338       0.8265477        0.6716346         -86.943        0.6716346         -86.943          0.69761       0.8317966
130.27                 0.6981328       0.6481332        0.6709096        -87.1317        0.6709096        -87.1317        0.6982094       0.6534045
130.46                 0.6987269       0.4695591        0.6701849       -87.32087        0.6701849       -87.32087        0.6988039       0.4748527
130.65                  0.699316       0.2908272        0.6694606        -87.5105        0.6694605        -87.5105        0.6993936        0.296143
130.84                 0.6999004        0.111939        0.6687364        -87.7006        0.6687364        -87.7006        0.6999784       0.1172769
131.03                 0.7004797     -0.06710409        0.6680127       -87.89114        0.6680127       -87.89114        0.7005582     -0.06174387
131.22                 0.7010543      -0.2463009        0.6672893       -88.08211        0.6672893       -88.08211        0.7011334      -0.2409183
131.41                 0.7016241      -0.4256502        0.6665662        -88.2736        0.6665661        -88.2736        0.7017037      -0.4202453
131.6                  0.7021892      -0.6051514        0.6658434       -88.46547        0.6658434       -88.46547        0.7022692      -0.5997241
131.79                 0.7027496      -0.7848036         0.665121       -88.65782        0.6651209       -88.65782          0.70283      -0.7793541
131.98                 0.7033052      -0.9646067         0.664399       -88.85062        0.6643989       -88.85062        0.7033861      -0.9591347
132.17                 0.7038562        -1.14456        0.6636773       -89.04384        0.6636773       -89.04384        0.7039376       -1.139066
132.36                 0.7044025       -1.324665         0.662956       -89.23751         0.662956       -89.23751        0.7044844       -1.319148
132.55                 0.7049443        -1.50492        0.6622351       -89.43161        0.6622351       -89.43161        0.7050267        -1.49938
132.74                 0.7054815       -1.685326        0.6615147       -89.62615        0.6615147       -89.62615        0.7055644       -1.679764
132.93                 0.7060142       -1.865885        0.6607948       -89.82111        0.6607948       -89.82111        0.7060976         -1.8603
133.12                 0.7065425       -2.046596        0.6600753        -90.0165        0.6600753        -90.0165        0.7066263       -2.040989
133.31                 0.7070664       -2.227462        0.6593565       -90.21231        0.6593565       -90.21231        0.7071507       -2.221832
133.5                  0.7075857       -2.408484        0.6586382       -90.40854        0.6586382       -90.40854        0.7076706       -2.402831
133.69                 0.7081008       -2.589664        0.6579205       -90.60518        0.6579205       -90.60518        0.7081862       -2.583987
133.88                 0.7086117       -2.771003        0.6572035       -90.80223        0.6572035       -90.80223        0.7086975       -2.765303
134.07                 0.7091182       -2.952503        0.6564873       -90.99969        0.6564873       -90.99969        0.7092046       -2.946781
134.26                 0.7096205       -3.134169        0.6557718       -91.19755        0.6557718       -91.19755        0.7097073       -3.128424
134.45                 0.7101186       -3.316002        0.6550571       -91.39582        0.6550571       -91.39582         0.710206       -3.310233
134.64                 0.7106126       -3.498005        0.6543433       -91.59448        0.6543433       -91.59448        0.7107005       -3.492213
134.83                 0.7111025       -3.680182        0.6536306       -91.79353        0.6536306       -91.79353        0.7111908       -3.674366
135.02                 0.7115883       -3.862536        0.6529188       -91.99298        0.6529188       -91.99298        0.7116772       -3.856697
135.21                 0.7120701       -4.045071        0.6522081        -92.1928        0.6522081        -92.1928        0.7121595       -4.039209
135.4                  0.7125479       -4.227793        0.6514986       -92.39301        0.6514985       -92.39301        0.7126378       -4.221907
135.59                 0.7130218       -4.410704        0.6507902        -92.5936        0.6507902        -92.5936        0.7131122       -4.404794
135.78                 0.7134919        -4.59381        0.6500833       -92.79457        0.6500833       -92.79457        0.7135828       -4.587876
135.97                  0.713958       -4.777117        0.6493777       -92.99591        0.6493777       -92.99591        0.7140494       -4.771158
136.16                 0.7144202       -4.960629        0.6486737       -93.19762        0.6486736       -93.19762        0.7145122       -4.954646
136.35                 0.7148787       -5.144351        0.6479712       -93.39969        0.6479712       -93.39969        0.7149712       -5.138343
136.54                 0.7153335        -5.32829        0.6472705       -93.60213        0.6472704       -93.60213        0.7154265       -5.322259
136.73                 0.7157844       -5.512453        0.6465715       -93.80493        0.6465715       -93.80493         0.715878       -5.506396
136.92                 0.7162318       -5.696845        0.6458744       -94.00809        0.6458744       -94.00809        0.7163259       -5.690763
137.11                 0.7166754       -5.881474        0.6451794        -94.2116        0.6451794        -94.2116          0.71677       -5.875367
137.3                  0.7171153       -6.066346        0.6444864       -94.41547        0.6444864       -94.41547        0.7172104       -6.060214
137.49                 0.7175516        -6.25147        0.6437957       -94.61969        0.6437957       -94.61969        0.7176472       -6.245312
137.68                 0.7179843       -6.436851        0.6431074       -94.82427        0.6431073       -94.82427        0.7180804       -6.430667
137.87                 0.7184133       -6.622499        0.6424215       -95.02918        0.6424215       -95.02918          0.71851       -6.616289
138.06                 0.7188388       -6.808421        0.6417382       -95.23445        0.6417382       -95.23445        0.7189361       -6.802185
138.25                 0.7192607       -6.994626        0.6410577       -95.44006        0.6410577       -95.44006        0.7193585       -6.988365
138.44                 0.7196791       -7.181123          0.64038       -95.64602          0.64038       -95.64602        0.7197774       -7.174834
138.63                 0.7200938        -7.36792        0.6397053       -95.85233        0.6397053       -95.85233        0.7201927       -7.361605
138.82                  0.720505       -7.555027        0.6390337       -96.05897        0.6390337       -96.05897        0.7206045       -7.548685
139.01                 0.7209127       -7.742454        0.6383655       -96.26597        0.6383655       -96.26597        0.7210126       -7.736084
139.2                  0.7213166       -7.930208        0.6377007       -96.47331        0.6377007       -96.47331        0.7214172       -7.923811
139.39                 0.7217171       -8.118301        0.6370394       -96.68099        0.6370394       -96.68099        0.7218182       -8.111877
139.58                  0.722114       -8.306744        0.6363819       -96.88902        0.6363819       -96.88902        0.7222156        -8.30029
139.77                 0.7225072       -8.495545        0.6357282        -97.0974        0.6357282        -97.0974        0.7226094       -8.489064
139.96                 0.7228968       -8.684715        0.6350786       -97.30614        0.6350786       -97.30614        0.7229995       -8.678204
140.15                 0.7232827       -8.874266        0.6344332       -97.51522        0.6344332       -97.51522         0.723386       -8.867726
140.34                 0.7236649       -9.064209        0.6337923       -97.72466        0.6337922       -97.72466        0.7237688       -9.057639
140.53                 0.7240434       -9.254552        0.6331558       -97.93446        0.6331558       -97.93446        0.7241478       -9.247954
140.72                  0.724418        -9.44531         0.632524       -98.14462         0.632524       -98.14462        0.7245231       -9.438683
140.91                 0.7247889       -9.636493        0.6318971       -98.35515         0.631897       -98.35515        0.7248945       -9.629835
141.1                  0.7251559       -9.828112        0.6312753       -98.56606        0.6312752       -98.56606         0.725262       -9.821424
141.29                 0.7255189       -10.02018        0.6306586       -98.77733        0.6306586       -98.77733        0.7256256       -10.01346
141.48                 0.7258779       -10.21271        0.6300473       -98.98898        0.6300473       -98.98898        0.7259852       -10.20596
141.67                 0.7262328       -10.40571        0.6294416       -99.20103        0.6294416       -99.20103        0.7263407       -10.39893
141.86                 0.7265836       -10.59919        0.6288417       -99.41347        0.6288417       -99.41347        0.7266921       -10.59238
142.05                 0.7269302       -10.79318        0.6282478       -99.62631        0.6282478       -99.62631        0.7270393       -10.78633
142.24                 0.7272724       -10.98767        0.6276599       -99.83955        0.6276599       -99.83955        0.7273822       -10.98079
142.43                 0.7276102       -11.18268        0.6270783       -100.0532        0.6270783       -100.0532        0.7277206       -11.17576
142.62                 0.7279436       -11.37822        0.6265033       -100.2673        0.6265033       -100.2673        0.7280545       -11.37128
142.81                 0.7282723       -11.57431        0.6259349       -100.4818        0.6259348       -100.4818        0.7283838       -11.56734
143                    0.7285963       -11.77096        0.6253734       -100.6968        0.6253734       -100.6968        0.7287085       -11.76395
143.19                 0.7289155       -11.96819        0.6248189       -100.9122        0.6248189       -100.9122        0.7290283       -11.96114
143.38                 0.7292297       -12.16599        0.6242716       -101.1281        0.6242716       -101.1281        0.7293431       -12.15891
143.57                 0.7295389       -12.36439        0.6237318       -101.3445        0.6237318       -101.3445        0.7296529       -12.35727
143.76                 0.7298428        -12.5634        0.6231995       -101.5614        0.6231995       -101.5614        0.7299574       -12.55625
143.95                 0.7301414       -12.76303        0.6226752       -101.7787        0.6226752       -101.7787        0.7302565       -12.75584
144.14                 0.7304343        -12.9633        0.6221587       -101.9966        0.6221587       -101.9966        0.7305503       -12.95607
144.33                 0.7307216       -13.16421        0.6216504        -102.215        0.6216504        -102.215        0.7308382       -13.15695
144.52                 0.7310032       -13.36578        0.6211506        -102.434        0.6211506        -102.434        0.7311204       -13.35848
144.71                 0.7312787       -13.56803        0.6206592       -102.6535        0.6206592       -102.6535        0.7313966       -13.56069
144.9                   0.731548       -13.77095        0.6201766       -102.8736        0.6201765       -102.8736        0.7316665       -13.76357
145.09                  0.731811       -13.97457        0.6197028       -103.0943        0.6197028       -103.0943        0.7319301       -13.96716
145.28                 0.7320674        -14.1789        0.6192381       -103.3156        0.6192381       -103.3156        0.7321872       -14.17144
145.47                  0.732317       -14.38395        0.6187827       -103.5375        0.6187827       -103.5375        0.7324375       -14.37645
145.66                 0.7325596       -14.58972        0.6183368       -103.7601        0.6183368       -103.7601        0.7326809       -14.58219
145.85                 0.7327951       -14.79624        0.6179004       -103.9833        0.6179004       -103.9833         0.732917       -14.78867
146.04                 0.7330232       -15.00351        0.6174738       -104.2073        0.6174738       -104.2073        0.7331458       -14.99589
146.23                 0.7332436       -15.21155        0.6170572       -104.4319        0.6170572       -104.4319         0.733367       -15.20389
146.42                 0.7334563       -15.42036        0.6166506       -104.6573        0.6166506       -104.6573        0.7335802       -15.41266
146.61                 0.7336607       -15.62996        0.6162544       -104.8834        0.6162544       -104.8834        0.7337854       -15.62221
146.8                  0.7338569       -15.84035        0.6158686       -105.1103        0.6158686       -105.1103        0.7339824       -15.83256
146.99                 0.7340444       -16.05155        0.6154934        -105.338        0.6154934        -105.338        0.7341706       -16.04371
147.18                 0.7342232       -16.26355        0.6151289       -105.5666        0.6151289       -105.5666        0.7343501       -16.25568
147.37                 0.7343927       -16.47639        0.6147753       -105.7959        0.6147753       -105.7959        0.7345204       -16.46847
147.56                 0.7345529       -16.69006        0.6144328       -106.0262        0.6144327       -106.0262        0.7346814        -16.6821
147.75                 0.7347034       -16.90457        0.6141013       -106.2573        0.6141013       -106.2573        0.7348326       -16.89656
147.94                 0.7348439       -17.11994        0.6137813       -106.4894        0.6137812       -106.4894        0.7349739       -17.11188
148.13                 0.7349742       -17.33616        0.6134726       -106.7224        0.6134726       -106.7224        0.7351049       -17.32806
148.32                 0.7350939       -17.55325        0.6131755       -106.9564        0.6131755       -106.9564        0.7352254        -17.5451
148.51                 0.7352026       -17.77121          0.61289       -107.1915          0.61289       -107.1915         0.735335       -17.76301
148.7                  0.7353002       -17.99006        0.6126164       -107.4275        0.6126164       -107.4275        0.7354334       -17.98181
148.89                 0.7353864       -18.20978        0.6123547       -107.6646        0.6123547       -107.6646        0.7355204       -18.20149
149.08                 0.7354606       -18.43041         0.612105       -107.9028         0.612105       -107.9028        0.7355954       -18.42206
149.27                 0.7355227       -18.65193        0.6118673       -108.1422        0.6118673       -108.1422        0.7356584       -18.64353
149.46                 0.7355724       -18.87435        0.6116419       -108.3827        0.6116419       -108.3827        0.7357088        -18.8659
149.65                 0.7356091       -19.09768        0.6114287       -108.6244        0.6114287       -108.6244        0.7357464       -19.08918
149.84                 0.7356326       -19.32192        0.6112278       -108.8673        0.6112278       -108.8673        0.7357708       -19.31338
150.03                 0.7356427       -19.54708        0.6110394       -109.1114        0.6110394       -109.1114        0.7357817       -19.53848
150.22                 0.7356388       -19.77315        0.6108635       -109.3569        0.6108635       -109.3569        0.7357788        -19.7645
150.41                 0.7356206       -20.00015           0.6107       -109.6037           0.6107       -109.6037        0.7357615       -19.99145
150.6                  0.7355877       -20.22807        0.6105491       -109.8518        0.6105491       -109.8518        0.7357295       -20.21931
150.79                   0.73554       -20.45691        0.6104109       -110.1013        0.6104109       -110.1013        0.7356826        -20.4481
150.98                 0.7354767       -20.68667        0.6102854       -110.3522        0.6102854       -110.3522        0.7356203       -20.67781
151.17                 0.7353977       -20.91736        0.6101725       -110.6046        0.6101725       -110.6046        0.7355422       -20.90844
151.36                 0.7353026       -21.14897        0.6100723       -110.8585        0.6100723       -110.8585         0.735448          -21.14
151.55                 0.7351909       -21.38151        0.6099847       -111.1139        0.6099847       -111.1139        0.7353372       -21.37248
151.74                 0.7350622       -21.61496          0.60991       -111.3709          0.60991       -111.3709        0.7352095       -21.60587
151.93                 0.7349161       -21.84933        0.6098479       -111.6294        0.6098479       -111.6294        0.7350645       -21.84019
152.12                 0.7347523       -22.08461        0.6097985       -111.8896        0.6097985       -111.8896        0.7349017       -22.07542
152.31                 0.7345705       -22.32081        0.6097617       -112.1514        0.6097617       -112.1514        0.7347208       -22.31156
152.5                  0.7343699       -22.55791        0.6097377        -112.415        0.6097377        -112.415        0.7345213        -22.5486
152.69                 0.7341505       -22.79591        0.6097262       -112.6803        0.6097261       -112.6803        0.7343028       -22.78655
152.88                 0.7339116       -23.03481        0.6097272       -112.9474        0.6097272       -112.9474         0.734065       -23.02539
153.07                 0.7336529        -23.2746        0.6097407       -113.2162        0.6097406       -113.2162        0.7338074       -23.26511
153.26                  0.733374       -23.51526        0.6097666        -113.487        0.6097666        -113.487        0.7335296       -23.50572
153.45                 0.7330746       -23.75679        0.6098049       -113.7596        0.6098049       -113.7596        0.7332311       -23.74719
153.64                  0.732754       -23.99919        0.6098555       -114.0341        0.6098554       -114.0341        0.7329117       -23.98953
153.83                 0.7324119       -24.24245        0.6099181       -114.3106        0.6099181       -114.3106        0.7325707       -24.23273
154.02                  0.732048       -24.48654        0.6099929       -114.5891        0.6099929       -114.5891        0.7322079       -24.47676
154.21                 0.7316617       -24.73146        0.6100796       -114.8696        0.6100796       -114.8696        0.7318228       -24.72162
154.4                  0.7312528        -24.9772        0.6101781       -115.1521        0.6101781       -115.1521        0.7314149       -24.96731
154.59                 0.7308206       -25.22375        0.6102884       -115.4368        0.6102884       -115.4368        0.7309839       -25.21379
154.78                 0.7303649       -25.47109        0.6104102       -115.7236        0.6104102       -115.7236        0.7305294       -25.46107
154.97                 0.7298852        -25.7192        0.6105434       -116.0126        0.6105434       -116.0126        0.7300508       -25.70912
155.16                 0.7293809       -25.96808        0.6106879       -116.3037        0.6106879       -116.3037        0.7295478       -25.95794
155.35                 0.7288519        -26.2177        0.6108433       -116.5971        0.6108433       -116.5971          0.72902       -26.20749
155.54                 0.7282977       -26.46804        0.6110099       -116.8928        0.6110099       -116.8928         0.728467       -26.45777
155.73                 0.7277177       -26.71909        0.6111871       -117.1908         0.611187       -117.1908        0.7278883       -26.70876
155.92                 0.7271118       -26.97083        0.6113748       -117.4911        0.6113748       -117.4911        0.7272835       -26.96044
156.11                 0.7264792       -27.22324        0.6115729       -117.7938        0.6115729       -117.7938        0.7266522       -27.21278
156.3                  0.7258198       -27.47629        0.6117811       -118.0989        0.6117811       -118.0989         0.725994       -27.46578
156.49                 0.7251331       -27.72997        0.6119993       -118.4064        0.6119993       -118.4064        0.7253086       -27.71939
156.68                 0.7244186       -27.98425        0.6122271       -118.7164        0.6122271       -118.7164        0.7245955       -27.97361
156.87                  0.723676        -28.2391        0.6124644       -119.0289        0.6124644       -119.0289        0.7238542        -28.2284
157.06                  0.722905       -28.49451        0.6127109       -119.3439        0.6127108       -119.3439        0.7230845       -28.48375
157.25                  0.722105       -28.75045        0.6129663       -119.6614        0.6129663       -119.6614        0.7222858       -28.73962
157.44                 0.7212758       -29.00688        0.6132305       -119.9816        0.6132305       -119.9816         0.721458       -28.99598
157.63                 0.7204169       -29.26378         0.613503       -120.3044         0.613503       -120.3044        0.7206005       -29.25282
157.82                 0.7195281       -29.52111        0.6137838       -120.6298        0.6137838       -120.6298         0.719713       -29.51009
158.01                 0.7186087       -29.77887        0.6140724       -120.9578        0.6140723       -120.9578        0.7187951       -29.76778
158.2                  0.7176586       -30.03699        0.6143685       -121.2886        0.6143685       -121.2886        0.7178464       -30.02585
158.39                 0.7166775       -30.29546         0.614672       -121.6221         0.614672       -121.6221        0.7168667       -30.28425
158.58                 0.7156649       -30.55425        0.6149824       -121.9584        0.6149824       -121.9584        0.7158556       -30.54298
158.77                 0.7146205       -30.81331        0.6152995       -122.2974        0.6152995       -122.2974        0.7148126       -30.80197
158.96                 0.7135439        -31.0726         0.615623       -122.6392         0.615623       -122.6392        0.7137376       -31.06121
159.15                  0.712435       -31.33211        0.6159525       -122.9839        0.6159525       -122.9839        0.7126301       -31.32065
159.34                 0.7112933       -31.59177        0.6162876       -123.3314        0.6162876       -123.3314        0.7114899       -31.58025
159.53                 0.7101185       -31.85157        0.6166281       -123.6817        0.6166281       -123.6817        0.7103165       -31.83998
159.72                 0.7089103       -32.11144        0.6169736       -124.0349        0.6169736       -124.0349        0.7091099        -32.0998
159.91                 0.7076685       -32.37136        0.6173237       -124.3911        0.6173237       -124.3911        0.7078696       -32.35965
160.1                  0.7063927       -32.63126        0.6176781       -124.7502        0.6176781       -124.7502        0.7065954        -32.6195
160.29                 0.7050828       -32.89113        0.6180365       -125.1122        0.6180365       -125.1122         0.705287       -32.87931
160.48                 0.7037383       -33.15091        0.6183984       -125.4771        0.6183983       -125.4771        0.7039442       -33.13902
160.67                 0.7023593       -33.41054        0.6187634       -125.8451        0.6187634       -125.8451        0.7025667        -33.3986
160.86                 0.7009452       -33.66999        0.6191313        -126.216        0.6191313        -126.216        0.7011543       -33.65799
161.05                  0.699496       -33.92919        0.6195015       -126.5899        0.6195015       -126.5899        0.6997068       -33.91713
161.24                 0.6980115        -34.1881        0.6198738       -126.9669        0.6198738       -126.9669        0.6982239       -34.17599
161.43                 0.6964914       -34.44667        0.6202478       -127.3469        0.6202477       -127.3469        0.6967055        -34.4345
161.62                 0.6949356       -34.70484        0.6206229         -127.73        0.6206229         -127.73        0.6951513       -34.69261
161.81                 0.6933439       -34.96256        0.6209989       -128.1161        0.6209989       -128.1161        0.6935613       -34.95027
162                    0.6917161       -35.21976        0.6213753       -128.5053        0.6213753       -128.5053        0.6919352       -35.20743
162.19                 0.6900521        -35.4764        0.6217516       -128.8975        0.6217516       -128.8975        0.6902729       -35.46401
162.38                 0.6883519       -35.73239        0.6221276       -129.2929        0.6221276       -129.2929        0.6885744       -35.71996
162.57                 0.6866152       -35.98771        0.6225028       -129.6913        0.6225028       -129.6913        0.6868394       -35.97521
162.76                 0.6848419       -36.24226        0.6228767       -130.0929        0.6228767       -130.0929        0.6850679       -36.22972
162.95                 0.6830321         -36.496        0.6232489       -130.4975        0.6232488       -130.4975        0.6832599        -36.4834
163.14                 0.6811857       -36.74884        0.6236189       -130.9053        0.6236189       -130.9053        0.6814152        -36.7362
163.33                 0.6793024       -37.00073        0.6239865       -131.3162        0.6239865       -131.3162        0.6795338       -36.98804
163.52                 0.6773826       -37.25158        0.6243512       -131.7302        0.6243512       -131.7302        0.6776157       -37.23885
163.71                  0.675426       -37.50134        0.6247124       -132.1474        0.6247124       -132.1474        0.6756609       -37.48857
163.9                  0.6734327       -37.74992        0.6250697       -132.5676        0.6250697       -132.5676        0.6736693       -37.73711
164.09                 0.6714026       -37.99726        0.6254228        -132.991        0.6254228        -132.991        0.6716411       -37.98441
164.28                 0.6693359       -38.24328        0.6257712       -133.4176        0.6257712       -133.4176        0.6695764       -38.23038
164.47                 0.6672328       -38.48788        0.6261143       -133.8472        0.6261143       -133.8472         0.667475       -38.47494
164.66                 0.6650931       -38.73099         0.626452         -134.28         0.626452         -134.28        0.6653372       -38.71802
164.85                 0.6629171       -38.97255        0.6267836       -134.7159        0.6267836       -134.7159        0.6631631       -38.95954
165.04                 0.6607049       -39.21244        0.6271087       -135.1549        0.6271086       -135.1549        0.6609528        -39.1994
165.23                 0.6584566       -39.45059        0.6274268       -135.5971        0.6274268       -135.5971        0.6587064       -39.43752
165.42                 0.6561725       -39.68691        0.6277376       -136.0423        0.6277376       -136.0423        0.6564241       -39.67381
165.61                 0.6538527        -39.9213        0.6280405       -136.4907        0.6280405       -136.4907        0.6541063       -39.90818
165.8                  0.6514975       -40.15368        0.6283352       -136.9422        0.6283352       -136.9422        0.6517529       -40.14054
165.99                  0.649107       -40.38396        0.6286212       -137.3967        0.6286212       -137.3967        0.6493644       -40.37079
166.18                 0.6466817       -40.61201         0.628898       -137.8543         0.628898       -137.8543         0.646941       -40.59883
166.37                 0.6442218       -40.83776        0.6291652        -138.315        0.6291652        -138.315         0.644483       -40.82456
166.56                 0.6417275        -41.0611        0.6294224       -138.7788        0.6294224       -138.7788        0.6419907       -41.04789
166.75                 0.6391994       -41.28193        0.6296691       -139.2456        0.6296691       -139.2456        0.6394646        -41.2687
166.94                 0.6366377       -41.50013        0.6299049       -139.7154        0.6299049       -139.7154        0.6369048        -41.4869
167.13                 0.6340429        -41.7156        0.6301293       -140.1883        0.6301292       -140.1883         0.634312       -41.70237
167.32                 0.6314154       -41.92822        0.6303418       -140.6642        0.6303418       -140.6642        0.6316865       -41.91499
167.51                 0.6287557       -42.13789        0.6305422       -141.1431        0.6305422       -141.1431        0.6290288       -42.12467
167.7                  0.6260643       -42.34449        0.6307298        -141.625        0.6307298        -141.625        0.6263393       -42.33127
167.89                 0.6233417        -42.5479        0.6309043       -142.1098        0.6309043       -142.1098        0.6236186       -42.53469
168.08                 0.6205884       -42.74799        0.6310653       -142.5976        0.6310653       -142.5976        0.6208674        -42.7348
168.27                 0.6178051       -42.94466        0.6312123       -143.0884        0.6312123       -143.0884        0.6180862       -42.93147
168.46                 0.6149924       -43.13775         0.631345        -143.582        0.6313449        -143.582        0.6152755        -43.1246
168.65                 0.6121509       -43.32715        0.6314628       -144.0786        0.6314627       -144.0786         0.612436       -43.31403
168.84                 0.6092814       -43.51274        0.6315653        -144.578        0.6315653        -144.578        0.6095684       -43.49965
169.03                 0.6063845       -43.69437        0.6316522       -145.0803        0.6316522       -145.0803        0.6066735       -43.68132
169.22                 0.6034611       -43.87191        0.6317229       -145.5854        0.6317229       -145.5854        0.6037521        -43.8589
169.41                 0.6005118       -44.04521        0.6317771       -146.0933        0.6317771       -146.0933        0.6008049       -44.03225
169.6                  0.5975376       -44.21415        0.6318145       -146.6041        0.6318145       -146.6041        0.5978326       -44.20124
169.79                 0.5945393       -44.37856        0.6318346       -147.1176        0.6318346       -147.1176        0.5948363       -44.36572
169.98                 0.5915178       -44.53833         0.631837       -147.6339        0.6318369       -147.6339        0.5918168       -44.52554
170.17                  0.588474       -44.69327        0.6318211       -148.1528        0.6318211       -148.1528         0.588775       -44.68056
170.36                  0.585409       -44.84326        0.6317868       -148.6745        0.6317868       -148.6745         0.585712       -44.83062
170.55                 0.5823238       -44.98813        0.6317337       -149.1989        0.6317336       -149.1989        0.5826287       -44.97558
170.74                 0.5792194       -45.12774        0.6316611       -149.7259        0.6316611       -149.7259        0.5795263       -45.11527
170.93                 0.5760969        -45.2619         0.631569       -150.2555        0.6315689       -150.2555        0.5764058       -45.24954
171.12                 0.5729575       -45.39049        0.6314567       -150.7878        0.6314567       -150.7878        0.5732683       -45.37823
171.31                 0.5698023       -45.51332         0.631324       -151.3225         0.631324       -151.3225        0.5701151       -45.50118
171.5                  0.5666327       -45.63023        0.6311705       -151.8599        0.6311705       -151.8599        0.5669474       -45.61821
171.69                 0.5634498       -45.74107        0.6309959       -152.3997        0.6309959       -152.3997        0.5637664       -45.72918
171.88                  0.560255       -45.84565        0.6307997        -152.942        0.6307997        -152.942        0.5605735        -45.8339
172.07                 0.5570497       -45.94382        0.6305816       -153.4868        0.6305816       -153.4868        0.5573701       -45.93221
172.26                 0.5538352        -46.0354        0.6303413       -154.0339        0.6303413       -154.0339        0.5541575       -46.02395
172.45                  0.550613       -46.12021        0.6300783       -154.5835        0.6300783       -154.5835        0.5509371       -46.10892
172.64                 0.5473847       -46.19809        0.6297925       -155.1354        0.6297925       -155.1354        0.5477107       -46.18698
172.83                 0.5441518       -46.26885        0.6294833       -155.6896        0.6294833       -155.6896        0.5444796       -46.25793
173.02                 0.5409159       -46.33234        0.6291506       -156.2461        0.6291506       -156.2461        0.5412454       -46.32162
173.21                 0.5376785       -46.38837        0.6287939       -156.8048        0.6287939       -156.8048        0.5380098       -46.37785
173.4                  0.5344415       -46.43676         0.628413       -157.3658         0.628413       -157.3658        0.5347745       -46.42647
173.59                 0.5312066       -46.47734        0.6280075       -157.9289        0.6280075       -157.9289        0.5315413       -46.46728
173.78                 0.5279754       -46.50995        0.6275772       -158.4942        0.6275772       -158.4942        0.5283119       -46.50013
173.97                 0.5247501        -46.5344        0.6271215       -159.0615        0.6271215       -159.0615        0.5250881       -46.52484
174.16                 0.5215322       -46.55053        0.6266404       -159.6309        0.6266404       -159.6309        0.5218719       -46.54124
174.35                  0.518324       -46.55817        0.6261336       -160.2024        0.6261336       -160.2024        0.5186652       -46.54915
174.54                 0.5151272       -46.55715        0.6256007       -160.7759        0.6256007       -160.7759          0.51547       -46.54843
174.73                 0.5119439       -46.54731        0.6250414       -161.3512        0.6250414       -161.3512        0.5122883       -46.53889
174.92                 0.5087764       -46.52849        0.6244555       -161.9285        0.6244555       -161.9285        0.5091221       -46.52039
175.11                 0.5056265       -46.50053        0.6238427       -162.5077        0.6238427       -162.5077        0.5059737       -46.49277
175.3                  0.5024967       -46.46329        0.6232027       -163.0887        0.6232027       -163.0887        0.5028453       -46.45588
175.49                 0.4993891       -46.41661        0.6225353       -163.6714        0.6225353       -163.6714        0.4997389       -46.40957
175.68                 0.4963059       -46.36037        0.6218403       -164.2559        0.6218403       -164.2559         0.496657       -46.35371
175.87                 0.4932494       -46.29442        0.6211174       -164.8421        0.6211174       -164.8421        0.4936017       -46.28816
176.06                 0.4902221       -46.21865        0.6203662         -165.43        0.6203662         -165.43        0.4905756        -46.2128
176.25                 0.4872264       -46.13295        0.6195868       -166.0194        0.6195867       -166.0194        0.4875809       -46.12752
176.44                 0.4842646        -46.0372        0.6187787       -166.6104        0.6187787       -166.6104        0.4846201       -46.03221
176.63                 0.4813392       -45.93131        0.6179417       -167.2029        0.6179417       -167.2029        0.4816957       -45.92679
176.82                 0.4784528       -45.81519        0.6170758       -167.7969        0.6170758       -167.7969        0.4788102       -45.81115
177.01                 0.4756079       -45.68879        0.6161805       -168.3923        0.6161805       -168.3923        0.4759661       -45.68523
177.2                   0.472807       -45.55204        0.6152559       -168.9891        0.6152559       -168.9891         0.473166       -45.54899
177.39                 0.4700529       -45.40489        0.6143016       -169.5871        0.6143016       -169.5871        0.4704125       -45.40237
177.58                 0.4673481       -45.24732        0.6133175       -170.1865        0.6133175       -170.1865        0.4677082       -45.24534
177.77                 0.4646952       -45.07932        0.6123035       -170.7871        0.6123035       -170.7871        0.4650558        -45.0779
177.96                 0.4620969       -44.90089        0.6112593       -171.3888        0.6112593       -171.3888        0.4624578       -44.90005
178.15                 0.4595558       -44.71206        0.6101847       -171.9916        0.6101847       -171.9916        0.4599171       -44.71181
178.34                 0.4570748       -44.51288        0.6090798       -172.5955        0.6090797       -172.5955        0.4574363       -44.51322
178.53                 0.4546563       -44.30339        0.6079441       -173.2004        0.6079441       -173.2004        0.4550179       -44.30436
178.72                 0.4523032        -44.0837        0.6067778       -173.8063        0.6067778       -173.8063        0.4526647       -44.08531
178.91                 0.4500179        -43.8539        0.6055806        -174.413        0.6055806        -174.413        0.4503794       -43.85617
179.1                  0.4478033       -43.61416        0.6043523       -175.0206        0.6043523       -175.0206        0.4481646       -43.61709
179.29                  0.445662       -43.36459        0.6030931        -175.629         0.603093        -175.629         0.446023       -43.36819
179.48                 0.4435964       -43.10539        0.6018025       -176.2381        0.6018025       -176.2381         0.443957       -43.10971
179.67                 0.4416093       -42.83681        0.6004806       -176.8478        0.6004806       -176.8478        0.4419693       -42.84181
179.86                 0.4397031       -42.55898        0.5991274       -177.4582        0.5991274       -177.4582        0.4400624       -42.56469
180.05                 0.4378802       -42.27225        0.5977427       -178.0691        0.5977426       -178.0691        0.4382388        -42.2787
180.24                 0.4361432       -41.97686        0.5963264       -178.6804        0.5963264       -178.6804        0.4365008       -41.98404
180.43                 0.4344943       -41.67316        0.5948786       -179.2922        0.5948786       -179.2922        0.4348509       -41.68106
180.62                 0.4329358       -41.36143         0.593399       -179.9044         0.593399       -179.9044        0.4332913       -41.37009
180.81                   0.43147       -41.04208        0.5918878        179.4832        0.5918878        179.4832        0.4318243       -41.05147
181                    0.4300989       -40.71549        0.5903448        178.8706        0.5903447        178.8706        0.4304518       -40.72565
181.19                 0.4288246       -40.38209          0.58877        178.2578          0.58877        178.2578         0.429176       -40.39302
181.38                  0.427649        -40.0423        0.5871634        177.6449        0.5871634        177.6449        0.4279987         -40.054
181.57                 0.4265738       -39.69659        0.5855251        177.0321        0.5855251        177.0321        0.4269218       -39.70904
181.76                 0.4256009       -39.34549         0.583855        176.4192         0.583855        176.4192        0.4259469       -39.35871
181.95                 0.4247317       -38.98947        0.5821531        175.8066        0.5821531        175.8066        0.4250757       -39.00343
182.14                 0.4239677       -38.62905        0.5804194        175.1941        0.5804194        175.1941        0.4243096       -38.64378
182.33                 0.4233102       -38.26484        0.5786541        174.5818        0.5786541        174.5818        0.4236498       -38.28031
182.52                 0.4227604       -37.89735        0.5768571          173.97        0.5768571          173.97        0.4230975       -37.91355
182.71                 0.4223192       -37.52718        0.5750283        173.3586        0.5750283        173.3586        0.4226538       -37.54412
182.9                  0.4219875       -37.15496        0.5731682        172.7477        0.5731682        172.7477        0.4223195       -37.17264
183.09                 0.4217661       -36.78127        0.5712764        172.1374        0.5712764        172.1374        0.4220954       -36.79965
183.28                 0.4216555       -36.40676        0.5693534        171.5277        0.5693534        171.5277        0.4219819        -36.4258
183.47                 0.4216559       -36.03202        0.5673991        170.9188        0.5673991        170.9188        0.4219794       -36.05175
183.66                 0.4217678       -35.65768        0.5654135        170.3108        0.5654135        170.3108        0.4220882       -35.67806
183.85                 0.4219912       -35.28439        0.5633969        169.7036        0.5633969        169.7036        0.4223084       -35.30543
184.04                 0.4223258       -34.91275        0.5613495        169.0975        0.5613495        169.0975        0.4226398       -34.93442
184.23                 0.4227715       -34.54343        0.5592712        168.4925        0.5592712        168.4925        0.4230821       -34.56567
184.42                 0.4233277         -34.177        0.5571623        167.8887        0.5571622        167.8887         0.423635       -34.19984
184.61                  0.423994       -33.81412         0.555023        167.2862         0.555023        167.2862        0.4242977       -33.83749
184.8                  0.4247695       -33.45535        0.5528535        166.6851        0.5528535        166.6851        0.4250696       -33.47928
184.99                 0.4256532       -33.10135        0.5506538        166.0854        0.5506538        166.0854        0.4259497       -33.12575
185.18                 0.4266441       -32.75263        0.5484244        165.4873        0.5484244        165.4873        0.4269369       -32.77752
185.37                 0.4277409       -32.40975        0.5461653        164.8909        0.5461653        164.8909          0.42803       -32.43512
185.56                 0.4289424       -32.07329        0.5438769        164.2962        0.5438769        164.2962        0.4292276       -32.09908
185.75                 0.4302468       -31.74374        0.5415594        163.7035        0.5415593        163.7035        0.4305281       -31.76994
185.94                 0.4316525       -31.42162         0.539213        163.1127         0.539213        163.1127          0.43193       -31.44819
186.13                 0.4331579       -31.10739         0.536838         162.524         0.536838         162.524        0.4334314       -31.13432
186.32                 0.4347608       -30.80152        0.5344348        161.9375        0.5344348        161.9375        0.4350304       -30.82876
186.51                 0.4364593       -30.50442        0.5320038        161.3534        0.5320038        161.3534        0.4367249       -30.53195
186.7                  0.4382512        -30.2165         0.529545        160.7717         0.529545        160.7717        0.4385129        -30.2443
186.89                 0.4401343       -29.93814        0.5270591        160.1925         0.527059        160.1925         0.440392       -29.96618
187.08                 0.4421062       -29.66967        0.5245462         159.616        0.5245462         159.616        0.4423599       -29.69792
187.27                 0.4441644       -29.41144        0.5220069        159.0423        0.5220068        159.0423        0.4444141       -29.43987
187.46                 0.4463064       -29.16373        0.5194413        158.4715        0.5194413        158.4715        0.4465522       -29.19232
187.65                 0.4485296        -28.9268        0.5168503        157.9037        0.5168503        157.9037        0.4487715       -28.95552
187.84                 0.4508314        -28.7009        0.5142339        157.3391        0.5142339        157.3391        0.4510693       -28.72973
188.03                 0.4532089       -28.48625        0.5115928        156.7778        0.5115928        156.7778        0.4534429       -28.51516
188.22                 0.4556594       -28.28302        0.5089274        156.2199        0.5089273        156.2199        0.4558896       -28.31199
188.41                 0.4581801        -28.0914        0.5062382        155.6656        0.5062382        155.6656        0.4584064        -28.1204
188.6                   0.460768        -27.9115        0.5035257         155.115        0.5035257         155.115        0.4609906       -27.94051
188.79                 0.4634203       -27.74345        0.5007905        154.5683        0.5007904        154.5683        0.4636391       -27.77245
188.98                  0.466134       -27.58733         0.498033        154.0256         0.498033        154.0256        0.4663491        -27.6163
189.17                 0.4689061       -27.44322         0.495254         153.487         0.495254         153.487        0.4691176       -27.47215
189.36                 0.4717336       -27.31117        0.4924541        152.9527        0.4924541        152.9527        0.4719415       -27.34003
189.55                 0.4746136        -27.1912        0.4896338        152.4229        0.4896338        152.4229        0.4748179       -27.21997
189.74                  0.477543       -27.08331        0.4867938        151.8977        0.4867938        151.8977        0.4777439       -27.11198
189.93                 0.4805188       -26.98751        0.4839348        151.3773        0.4839348        151.3773        0.4807163       -27.01605
190.12                  0.483538       -26.90375        0.4810575        150.8618        0.4810574        150.8618        0.4837322       -26.93215
190.31                 0.4865976         -26.832        0.4781626        150.3514        0.4781625        150.3514        0.4867885       -26.86025
190.5                  0.4896945        -26.7722        0.4752508        149.8463        0.4752508        149.8463        0.4898823       -26.80028
190.69                 0.4928259       -26.72426        0.4723231        149.3466         0.472323        149.3466        0.4930106       -26.75217
190.88                 0.4959887       -26.68812        0.4693801        148.8526          0.46938        148.8526        0.4961703       -26.71583
191.07                   0.49918       -26.66366        0.4664226        148.3643        0.4664226        148.3643        0.4993587       -26.69117
191.26                 0.5023969       -26.65077        0.4634518        147.8821        0.4634517        147.8821        0.5025727       -26.67807
191.45                 0.5056365       -26.64935        0.4604682         147.406        0.4604682         147.406        0.5058095       -26.67642
191.64                 0.5088959       -26.65924         0.457473        146.9363         0.457473        146.9363        0.5090662       -26.68608
191.83                 0.5121722       -26.68032         0.454467        146.4731         0.454467        146.4731        0.5123398       -26.70692
192.02                 0.5154626       -26.71244        0.4514513        146.0167        0.4514513        146.0167        0.5156278       -26.73878
192.21                 0.5187645       -26.75544        0.4484268        145.5673        0.4484268        145.5672        0.5189272       -26.78153
192.4                  0.5220749       -26.80916        0.4453947        145.1249        0.4453947        145.1249        0.5222352       -26.83499
192.59                 0.5253913       -26.87345         0.442356          144.69         0.442356          144.69        0.5255493         -26.899
192.78                 0.5287109       -26.94811        0.4393119        144.2626        0.4393118        144.2626        0.5288667       -26.97339
192.97                 0.5320312       -27.03299        0.4362634         143.843        0.4362634         143.843        0.5321848       -27.05799
193.16                 0.5353494        -27.1279        0.4332119        143.4313        0.4332118        143.4314        0.5355011       -27.15261
193.35                 0.5386631       -27.23266        0.4301585        143.0279        0.4301584        143.0279        0.5388128       -27.25707
193.54                 0.5419698       -27.34708        0.4271045        142.6329        0.4271044        142.6329        0.5421177        -27.3712
193.73                  0.545267       -27.47097        0.4240512        142.2465        0.4240512        142.2465        0.5454131        -27.4948
193.92                 0.5485523       -27.60415            0.421         141.869        0.4209999         141.869        0.5486966       -27.62767
194.11                 0.5518232       -27.74642        0.4179522        141.5005        0.4179522        141.5005         0.551966       -27.76965
194.3                  0.5550774        -27.8976        0.4149092        141.1414        0.4149092        141.1414        0.5552187       -27.92051
194.49                 0.5583128       -28.05748        0.4118727        140.7917        0.4118726        140.7917        0.5584525       -28.08009
194.68                 0.5615269       -28.22587         0.408844        140.4519        0.4088439        140.4519        0.5616653       -28.24818
194.87                 0.5647175       -28.40259        0.4058246        140.1219        0.4058246        140.1219        0.5648547       -28.42459
195.06                 0.5678826       -28.58743        0.4028162        139.8022        0.4028162        139.8022        0.5680186       -28.60912
195.25                 0.5710201       -28.78021        0.3998204        139.4929        0.3998204        139.4929        0.5711549       -28.80158
195.44                 0.5741277       -28.98073        0.3968389        139.1942        0.3968389        139.1942        0.5742615       -29.00179
195.63                 0.5772034       -29.18879        0.3938734        138.9063        0.3938734        138.9063        0.5773364       -29.20955
195.82                 0.5802455       -29.40421        0.3909256        138.6296        0.3909256        138.6296        0.5803775       -29.42466
196.01                 0.5832518        -29.6268        0.3879974         138.364        0.3879973         138.364         0.583383       -29.64694
196.2                  0.5862204       -29.85636        0.3850905          138.11        0.3850905          138.11        0.5863509       -29.87619
196.39                 0.5891495       -30.09271        0.3822069        137.8676        0.3822069        137.8676        0.5892793       -30.11223
196.58                 0.5920373       -30.33566        0.3793485        137.6371        0.3793485        137.6371        0.5921666       -30.35488
196.77                 0.5948821       -30.58502        0.3765172        137.4187        0.3765172        137.4187        0.5950109       -30.60394
196.96                 0.5976821       -30.84062         0.373715        137.2125        0.3737149        137.2125        0.5978104       -30.85923
197.15                 0.6004355       -31.10226         0.370944        137.0187        0.3709439        137.0187        0.6005636       -31.12058
197.34                  0.603141       -31.36977        0.3682061        136.8374        0.3682061        136.8374        0.6032688       -31.38779
197.53                 0.6057967       -31.64298        0.3655037        136.6688        0.3655036        136.6688        0.6059242       -31.66069
197.72                 0.6084012       -31.92169        0.3628387        136.5131        0.3628386        136.5131        0.6085286        -31.9391
197.91                 0.6109529       -32.20573        0.3602133        136.3704        0.3602132        136.3704        0.6110803       -32.22286
198.1                  0.6134506       -32.49494        0.3576297        136.2406        0.3576297        136.2406        0.6135779       -32.51177
198.29                 0.6158925       -32.78913        0.3550902        136.1241        0.3550902        136.1241          0.61602       -32.80567
198.48                 0.6182776       -33.08813        0.3525969        136.0207        0.3525969        136.0207        0.6184052       -33.10439
198.67                 0.6206043       -33.39178        0.3501523        135.9306        0.3501522        135.9306        0.6207321       -33.40775
198.86                 0.6228715        -33.6999        0.3477584        135.8538        0.3477583        135.8538        0.6229996       -33.71559
199.05                 0.6250779       -34.01234        0.3454176        135.7903        0.3454176        135.7903        0.6252064       -34.02774
199.24                 0.6272223       -34.32891        0.3431322          135.74        0.3431322          135.74        0.6273512       -34.34404
199.43                 0.6293036       -34.64947        0.3409045        135.7029        0.3409044         135.703        0.6294329       -34.66433
199.62                 0.6313207       -34.97385        0.3387368         135.679        0.3387367         135.679        0.6314505       -34.98843
199.81                 0.6332725       -35.30188        0.3366313        135.6681        0.3366312        135.6681        0.6334029       -35.31619
200                     0.635158        -35.6334        0.3345903        135.6702        0.3345903        135.6702         0.635289       -35.64746
