! TOUCHSTONE file generated by CST MICROWAVE STUDIO
! Date and time: Tue Sep 15 11:43:22 2026
! Project name: inductor_fd.cst
! Header version: 2024
! Port assignment regex: !\s*Touchstone port\s*([0-9]+)\s*=\s*(CST MWS port|CST DES external port|CST DES block port)\s*(.+)\s* \(\"(.*)\"\)(\s*mode\s*([0-9]+))?.*
! Touchstone port assignment:
! Touchstone port 1 = CST MWS port 1 ("P1")
! Touchstone port 2 = CST MWS port 2 ("P2")
# GHz S MA R 50
10                   0.066344036      76.6407802        0.9873734     -6.02521058        0.9873734     -6.02521057     0.0663440315      76.6407946
10.19               0.0674956423      76.5968742      0.987218574     -6.13329617      0.987218574     -6.13329616     0.0674954811      76.5967859
10.38               0.0686467216      76.5507782      0.987062631     -6.24137029       0.98706263     -6.24137028     0.0686464065      76.5505949
10.57               0.0697972716      76.5026049      0.986905571     -6.34943326      0.986905571     -6.34943325     0.0697968056      76.5023339
10.76               0.0709472905      76.4524599      0.986747397      -6.4574854      0.986747397     -6.45748539     0.0709466765      76.4521078
10.95               0.0720967765      76.4004417      0.986588108     -6.56552703      0.986588108     -6.56552702     0.0720960176      76.4000149
11.14               0.0732457284      76.3466426      0.986427706     -6.67355847      0.986427706     -6.67355846     0.0732448276      76.3461469
11.33               0.0743941451      76.2911489      0.986266192     -6.78158004      0.986266192     -6.78158003     0.0743931054      76.2905899
11.52               0.0755420257      76.2340416      0.986103566     -6.88959208      0.986103565     -6.88959207     0.0755408501      76.2334246
11.71               0.0766893695      76.1753969      0.985939829     -6.99759489      0.985939828     -6.99759488     0.0766880611      76.1747267
11.9                0.0778361761      76.1152862      0.985774981      -7.1055888      0.985774981     -7.10558879      0.077834738      76.1145675
12.09               0.0789824452      76.0537768      0.985609025     -7.21357414      0.985609025     -7.21357413     0.0789808804      76.0530139
12.28               0.0801281767      75.9909318       0.98544196     -7.32155123       0.98544196     -7.32155122     0.0801264883      75.9901288
12.47               0.0812733708       75.926811      0.985273787     -7.42952039      0.985273787     -7.42952037     0.0812715619      75.9259717
12.66               0.0824180276      75.8614704      0.985104508     -7.53748194      0.985104507     -7.53748193     0.0824161012      75.8605984
12.85               0.0835621475      75.7949631      0.984934121     -7.64543621      0.984934121      -7.6454362     0.0835601067      75.7940619
13.04               0.0847057311      75.7273392       0.98476263     -7.75338352       0.98476263     -7.75338351     0.0847035789      75.7264119
13.23               0.0858487789       75.658646      0.984590033      -7.8613242      0.984590033     -7.86132419     0.0858465184      75.6576956
13.42               0.0869912917      75.5889282      0.984416332     -7.96925857      0.984416332     -7.96925856     0.0869889259      75.5879576
13.61               0.0881332703      75.5182282      0.984241528     -8.07718695      0.984241527     -8.07718694     0.0881308023        75.51724
13.8                0.0892747158      75.4465861       0.98406562     -8.18510967       0.98406562     -8.18510966     0.0892721486      75.4455828
13.99               0.0904156291      75.3740399       0.98388861     -8.29302706       0.98388861     -8.29302705     0.0904129657      75.3730239
14.18               0.0915560114      75.3006256      0.983710499     -8.40093943      0.983710499     -8.40093942     0.0915532549       75.299599
14.37                0.092695864      75.2263774      0.983531286     -8.50884712      0.983531286     -8.50884711     0.0926930174      75.2253424
14.56               0.0938351882      75.1513278      0.983350973     -8.61675045      0.983350973     -8.61675044     0.0938322544      75.1502863
14.75               0.0949739854      75.0755077       0.98316956     -8.72464974       0.98316956     -8.72464973     0.0949709673      75.0744614
14.94                0.096112257      74.9989463      0.982987048     -8.83254532      0.982987048     -8.83254531     0.0961091576       74.997897
15.13               0.0972500045      74.9216715      0.982803437     -8.94043752      0.982803437     -8.94043751     0.0972468268      74.9206208
15.32               0.0983872296      74.8437098      0.982618727     -9.04832666      0.982618727     -9.04832665     0.0983839765      74.8426593
15.51                0.099523934      74.7650866       0.98243292     -9.15621307       0.98243292     -9.15621306     0.0995206084      74.7640377
15.7                 0.100660119      74.6858259      0.982246016     -9.26409707      0.982246016     -9.26409706      0.100656724      74.6847798
15.89                0.101795787      74.6059506      0.982058014     -9.37197899      0.982058014     -9.37197898      0.101792325      74.6049086
16.08                 0.10293094      74.5254826      0.981868917     -9.47985916      0.981868917     -9.47985915      0.102927414      74.5244459
16.27                0.104065579      74.4444428      0.981678723     -9.58773791      0.981678723     -9.58773789      0.104061992      74.4434124
16.46                0.105199706       74.362851      0.981487434     -9.69561555      0.981487434     -9.69561554      0.105196061      74.3618279
16.65                0.106333324      74.2807263       0.98129505     -9.80349242       0.98129505     -9.80349241      0.106329623      74.2797115
16.84                0.107466434      74.1980868      0.981101571     -9.91136885      0.981101571     -9.91136884       0.10746268      74.1970812
17.03                0.108599039      74.1149499      0.980906999     -10.0192452      0.980906999     -10.0192451      0.108595234      74.1139542
17.22                0.109731139      74.0313323      0.980711332     -10.1271217      0.980711332     -10.1271217      0.109727288      74.0303472
17.41                0.110862739      73.9472497      0.980514572     -10.2349987      0.980514572     -10.2349987      0.110858843       73.946276
17.6                 0.111993839      73.8627173      0.980316719     -10.3428767      0.980316719     -10.3428766      0.111989901      73.8617556
17.79                0.113124442      73.7777497      0.980117773     -10.4507558      0.980117773     -10.4507558      0.113120464      73.7768006
17.98                 0.11425455      73.6923608      0.979917734     -10.5586364      0.979917734     -10.5586364      0.114250535      73.6914249
18.17                0.115384166      73.6065639      0.979716604     -10.6665189      0.979716604     -10.6665189      0.115380117      73.6056416
18.36                0.116513291      73.5203719      0.979514381     -10.7744036      0.979514381     -10.7744036       0.11650921      73.5194637
18.55                0.117641928      73.4337969      0.979311068     -10.8822907      0.979311068     -10.8822907      0.117637818      73.4329031
18.74                 0.11877008      73.3468506      0.979106662     -10.9901807      0.979106662     -10.9901807      0.118765942      73.3459717
18.93                0.119897748      73.2595444      0.978901166     -11.0980739      0.978901166     -11.0980739      0.119893586      73.2586807
19.12                0.121024935      73.1718891      0.978694579     -11.2059706      0.978694579     -11.2059706      0.121020751      73.1710408
19.31                0.122151643      73.0838949      0.978486902     -11.3138711      0.978486902     -11.3138711       0.12214744      73.0830624
19.5                 0.123277875      72.9955719      0.978278134     -11.4217757      0.978278134     -11.4217757      0.123273654      72.9947554
19.69                0.124403633      72.9069297      0.978068276     -11.5296848      0.978068276     -11.5296848      0.124399398      72.9061292
19.88                 0.12552892      72.8179773      0.977857328     -11.6375987      0.977857328     -11.6375987      0.125524672      72.8171932
20.07                0.126653738      72.7287237       0.97764529     -11.7455178       0.97764529     -11.7455178      0.126649479       72.727956
20.26                0.127778089      72.6391772      0.977432163     -11.8534423      0.977432163     -11.8534423      0.127773822      72.6384261
20.45                0.128901976      72.5493461      0.977217946     -11.9613727      0.977217946     -11.9613727      0.128897704      72.5486117
20.64                0.130025402      72.4592381       0.97700264     -12.0693091       0.97700264     -12.0693091      0.130021126      72.4585204
20.83                0.131148369      72.3688609      0.976786244     -12.1772521      0.976786244      -12.177252      0.131144091        72.36816
21.02                0.132270879      72.2782215      0.976568759     -12.2852018      0.976568759     -12.2852018      0.132266601      72.2775375
21.21                0.133392935      72.1873272      0.976350186     -12.3931586      0.976350186     -12.3931586       0.13338866      72.1866599
21.4                  0.13451454      72.0961844      0.976130523     -12.5011229      0.976130523     -12.5011229      0.134510269      72.0955339
21.59                0.135635696      72.0047997      0.975909771     -12.6090949      0.975909771     -12.6090949      0.135631431       72.004166
21.78                0.136756405      71.9131793      0.975687931     -12.7170751      0.975687931     -12.7170751      0.136752149      71.9125623
21.97                 0.13787667      71.8213293      0.975465001     -12.8250637      0.975465001     -12.8250637      0.137872425      71.8207289
22.16                0.138996495      71.7292552      0.975240983     -12.9330611      0.975240983     -12.9330611      0.138992262      71.7286714
22.35                 0.14011588      71.6369628      0.975015876     -13.0410675      0.975015876     -13.0410675      0.140111661      71.6363954
22.54                 0.14123483      71.5444573       0.97478968     -13.1490834       0.97478968     -13.1490834      0.141230626      71.5439063
22.73                0.142353345       71.451744      0.974562396     -13.2571091      0.974562396     -13.2571091       0.14234916      71.4512092
22.92                 0.14347143      71.3588277      0.974334022     -13.3651449      0.974334022     -13.3651449      0.143467264       71.358309
23.11                0.144589086      71.2657132      0.974104559     -13.4731911      0.974104559     -13.4731911      0.144584942      71.2652105
23.3                 0.145706317      71.1724053      0.973874008      -13.581248      0.973874008      -13.581248      0.145702195      71.1719184
23.49                0.146823124      71.0789082      0.973642367     -13.6893161      0.973642367     -13.6893161      0.146819027       71.078437
23.68                 0.14793951      70.9852264      0.973409638     -13.7973955      0.973409638     -13.7973955      0.147935439      70.9847706
23.87                0.149055478       70.891364      0.973175819     -13.9054868      0.973175819     -13.9054867      0.149051435      70.8909234
24.06                0.150171031      70.7973249       0.97294091       -14.01359       0.97294091       -14.01359      0.150167017      70.7968994
24.25                 0.15128617      70.7031129      0.972704912     -14.1217058      0.972704912     -14.1217058      0.151282188      70.7027023
24.44                  0.1524009      70.6087319      0.972467825     -14.2298342      0.972467825     -14.2298342      0.152396949       70.608336
24.63                0.153515221      70.5141853      0.972229648     -14.3379758      0.972229648     -14.3379757      0.153511304      70.5138039
24.82                0.154629137      70.4194767       0.97199038     -14.4461307       0.97199038     -14.4461307      0.154625255      70.4191095
25.01                 0.15574265      70.3246094      0.971750023     -14.5542994      0.971750023     -14.5542994      0.155738805      70.3242562
25.2                 0.156855763      70.2295865      0.971508575     -14.6624822      0.971508575     -14.6624821      0.156851956      70.2292471
25.39                0.157968479      70.1344112      0.971266037     -14.7706793      0.971266037     -14.7706793      0.157964711      70.1340853
25.58                0.159080799      70.0390866      0.971022408     -14.8788912      0.971022408     -14.8788912      0.159077071      70.0387739
25.77                0.160192727      69.9436153      0.970777688     -14.9871182      0.970777688     -14.9871182      0.160189041      69.9433158
25.96                0.161304264      69.8480004      0.970531877     -15.0953606      0.970531877     -15.0953606      0.161300622      69.8477136
26.15                0.162415415      69.7522444      0.970284975     -15.2036187      0.970284975     -15.2036187      0.162411816      69.7519702
26.34                 0.16352618      69.6563499       0.97003698     -15.3118929      0.970036981     -15.3118929      0.163522626       69.656088
26.53                0.164636563      69.5603195      0.969787894     -15.4201835      0.969787894     -15.4201835      0.164633056      69.5600697
26.72                0.165746566      69.4641556      0.969537716     -15.5284908      0.969537716     -15.5284908      0.165743106      69.4639175
26.91                0.166856191      69.3678605      0.969286445     -15.6368152      0.969286445     -15.6368152       0.16685278      69.3676339
27.1                 0.167965442      69.2714364      0.969034081      -15.745157      0.969034081      -15.745157      0.167962079      69.2712212
27.29                 0.16907432      69.1748856      0.968780623     -15.8535165      0.968780623     -15.8535165      0.169071008      69.1746813
27.48                0.170182828      69.0782102      0.968526073     -15.9618941      0.968526073     -15.9618941      0.170179567      69.0780166
27.67                0.171290968      68.9814121      0.968270428     -16.0702901      0.968270428     -16.0702901       0.17128776       68.981229
27.86                0.172398744      68.8844933      0.968013689     -16.1787048      0.968013689     -16.1787048      0.172395588      68.8843204
28.05                0.173506156      68.7874558      0.967755855     -16.2871385      0.967755855     -16.2871385      0.173503054      68.7872928
28.24                0.174613209      68.6903013      0.967496926     -16.3955917      0.967496926     -16.3955917      0.174610161       68.690148
28.43                0.175719903      68.5930316      0.967236902     -16.5040646      0.967236902     -16.5040646      0.175716911      68.5928877
28.62                0.176826242      68.4956484      0.966975782     -16.6125575      0.966975782     -16.6125576      0.176823306      68.4955136
28.81                0.177932228      68.3981533      0.966713566     -16.7210709      0.966713566     -16.7210709      0.177929349      68.3980273
29                   0.179037864      68.3005479      0.966450253      -16.829605      0.966450253      -16.829605      0.179035042      68.3004305
29.19                0.180143151      68.2028337      0.966185843     -16.9381601      0.966185843     -16.9381601      0.180140387      68.2027247
29.38                0.181248092      68.1050123      0.965920335     -17.0467366      0.965920336     -17.0467367      0.181245387      68.1049113
29.57                0.182352689      68.0070849       0.96565373     -17.1553349       0.96565373     -17.1553349      0.182350043      68.0069917
29.76                0.183456946       67.909053      0.965386026     -17.2639552      0.965386026     -17.2639552      0.183454359      67.9089673
29.95                0.184560863      67.8109179      0.965117222     -17.3725979      0.965117222     -17.3725979      0.184558337      67.8108395
30.14                0.185664443      67.7126809      0.964847319     -17.4812634      0.964847319     -17.4812634      0.185661978      67.7126095
30.33                0.186767689      67.6143432      0.964576317     -17.5899519      0.964576317     -17.5899519      0.186765285      67.6142785
30.52                0.187870603      67.5159059      0.964304213     -17.6986638      0.964304213     -17.6986638       0.18786826      67.5158477
30.71                0.188973187      67.4173702      0.964031009     -17.8073994      0.964031009     -17.8073994      0.188970906      67.4173182
30.9                 0.190075443      67.3187372      0.963756703     -17.9161591      0.963756703     -17.9161591      0.190073224      67.3186912
31.09                0.191177374      67.2200079      0.963481294     -18.0249431      0.963481294     -18.0249432      0.191175217      67.2199677
31.28                0.192278981      67.1211834      0.963204783     -18.1337519      0.963204783      -18.133752      0.192276887      67.1211487
31.47                0.193380267      67.0222646      0.962927169     -18.2425858      0.962927169     -18.2425858      0.193378236      67.0222351
31.66                0.194481234      66.9232525      0.962648451     -18.3514451      0.962648451     -18.3514451      0.194479267       66.923228
31.85                0.195581884       66.824148      0.962368628       -18.46033      0.962368628       -18.46033       0.19557998      66.8241282
32.04                 0.19668222      66.7249519        0.9620877     -18.5692411        0.9620877     -18.5692411       0.19668038      66.7249367
32.23                0.197782243      66.6256651      0.961805666     -18.6781785      0.961805666     -18.6781785      0.197780466      66.6256541
32.42                0.198881955      66.5262883      0.961522526     -18.7871427      0.961522526     -18.7871427      0.198880242      66.5262814
32.61                0.199981359      66.4268224      0.961238279     -18.8961339      0.961238279     -18.8961339       0.19997971      66.4268194
32.8                 0.201080457      66.3272681      0.960952924     -19.0051525      0.960952925     -19.0051525      0.201078872      66.3272687
32.99                 0.20217925      66.2276261      0.960666461     -19.1141989      0.960666462     -19.1141989      0.202177729        66.22763
33.18                 0.20327774       66.127897       0.96037889     -19.2232733       0.96037889     -19.2232733      0.203276283      66.1279041
33.37                 0.20437593      66.0280816      0.960090208     -19.3323761      0.960090208     -19.3323761      0.204374537      66.0280916
33.56                0.205473822      65.9281804      0.959800416     -19.4415076      0.959800416     -19.4415076      0.205472493      65.9281932
33.75                0.206571417      65.8281941      0.959509513     -19.5506682      0.959509513     -19.5506682      0.206570152      65.8282094
33.94                0.207668717      65.7281232      0.959217498     -19.6598581      0.959217498     -19.6598582      0.207667516      65.7281409
34.13                0.208765725      65.6279683      0.958924371     -19.7690779      0.958924371     -19.7690779      0.208764587      65.6279881
34.32                0.209862442      65.5277299      0.958630131     -19.8783276      0.958630131     -19.8783276      0.209861367      65.5277516
34.51                 0.21095887      65.4274085      0.958334777     -19.9876078      0.958334777     -19.9876078      0.210957858      65.4274319
34.7                 0.212055011      65.3270046      0.958038308     -20.0969187      0.958038308     -20.0969187      0.212054062      65.3270295
34.89                0.213150866      65.2265186      0.957740723     -20.2062606      0.957740724     -20.2062606       0.21314998      65.2265449
35.08                0.214246438       65.125951      0.957442023      -20.315634      0.957442023      -20.315634      0.214245614      65.1259785
35.27                0.215341728      65.0253022      0.957142206      -20.425039      0.957142206     -20.4250391      0.215340967      65.0253306
35.46                0.216436738      64.9245725       0.95684127     -20.5344762      0.956841271     -20.5344762      0.216436038      64.9246018
35.65                0.217531469      64.8237625      0.956539217     -20.6439457      0.956539217     -20.6439457      0.217530831      64.8237924
35.84                0.218625924      64.7228723      0.956236044     -20.7534479      0.956236044      -20.753448      0.218625347      64.7229027
36.03                0.219720104      64.6219024      0.955931751     -20.8629833      0.955931751     -20.8629833      0.219719588       64.621933
36.22                 0.22081401       64.520853      0.955626337      -20.972552      0.955626337      -20.972552      0.220813555      64.5208838
36.41                0.221907645      64.4197245      0.955319801     -21.0821544      0.955319801     -21.0821544      0.221907249      64.4197553
36.6                 0.223001009      64.3185172      0.955012143     -21.1917909      0.955012143     -21.1917909      0.223000673      64.3185479
36.79                0.224094105      64.2172313      0.954703361     -21.3014618      0.954703361     -21.3014618      0.224093828      64.2172616
36.98                0.225186934      64.1158671      0.954393455     -21.4111674      0.954393455     -21.4111674      0.225186716       64.115897
37.17                0.226279497      64.0144248      0.954082424      -21.520908      0.954082424      -21.520908      0.226279337       64.014454
37.36                0.227371796      63.9129046      0.953770267     -21.6306841      0.953770267     -21.6306841      0.227371694      63.9129331
37.55                0.228463833      63.8113068      0.953456983     -21.7404959      0.953456983     -21.7404959      0.228463788      63.8113344
37.645               0.229009753      63.7604788      0.953299918     -21.7954152      0.953299918     -21.7954153      0.229009737       63.760506
37.74                0.229555608      63.7096315      0.953142572     -21.8503437      0.953142572     -21.8503437       0.22955562      63.7096581
37.93                0.230647124      63.6078789      0.952827031     -21.9602279      0.952827031     -21.9602279      0.230647192      63.6079044
38.12                0.231738381      63.5060492      0.952510362     -22.0701488      0.952510362     -22.0701489      0.231738504      63.5060734
38.31                0.232829381      63.4041425      0.952192561     -22.1801068      0.952192561     -22.1801069      0.232829559      63.4041654
38.5                 0.233920126       63.302159       0.95187363     -22.2901022       0.95187363     -22.2901022      0.233920358      63.3021804
38.69                0.235010616      63.2000987      0.951553566     -22.4001353      0.951553566     -22.4001353      0.235010902      63.2001186
38.88                0.236100853      63.0979619      0.951232369     -22.5102065      0.951232369     -22.5102065      0.236101192      63.0979801
39.07                0.237190839      62.9957486      0.950910038      -22.620316      0.950910038      -22.620316      0.237191229       62.995765
39.26                0.238280573      62.8934589      0.950586572     -22.7304643      0.950586573     -22.7304643      0.238281016      62.8934734
39.45                0.239370058      62.7910929      0.950261971     -22.8406516      0.950261971     -22.8406516      0.239370552      62.7911054
39.64                0.240459295      62.6886507      0.949936232     -22.9508783      0.949936232     -22.9508783      0.240459839      62.6886611
39.83                0.241548285      62.5861323      0.949609355     -23.0611447      0.949609355     -23.0611447      0.241548878      62.5861405
40.02                0.242637029      62.4835377       0.94928134     -23.1714511       0.94928134     -23.1714511       0.24263767      62.4835437
40.21                0.243725527      62.3808671      0.948952184     -23.2817979      0.948952184     -23.2817979      0.243726217      62.3808707
40.4                 0.244813782      62.2781204      0.948621888     -23.3921854      0.948621888     -23.3921855      0.244814518      62.2781216
40.59                0.245901794      62.1752976      0.948290451      -23.502614      0.948290451      -23.502614      0.245902577      62.1752963
40.78                0.246989564      62.0723988       0.94795787      -23.613084       0.94795787      -23.613084      0.246990392       62.072395
40.97                0.248077093       61.969424      0.947624146     -23.7235956      0.947624146     -23.7235956      0.248077966      61.9694176
41.16                0.249164382      61.8663732      0.947289277     -23.8341493      0.947289277     -23.8341493      0.249165298      61.8663641
41.35                0.250251432      61.7632464      0.946953262     -23.9447453      0.946953262     -23.9447454      0.250252391      61.7632345
41.54                0.251338243      61.6600434      0.946616101     -24.0553841      0.946616101     -24.0553841      0.251339245      61.6600287
41.73                0.252424817      61.5567644      0.946277792     -24.1660659      0.946277792     -24.1660659       0.25242586      61.5567469
41.92                0.253511155      61.4534092      0.945938334      -24.276791      0.945938334      -24.276791      0.253512238      61.4533888
42.11                0.254597256      61.3499779      0.945597726     -24.3875599      0.945597726     -24.3875599       0.25459838      61.3499546
42.3                 0.255683123      61.2464704      0.945255967     -24.4983727      0.945255967     -24.4983727      0.255684285      61.2464441
42.49                0.256768755      61.1428866      0.944913057     -24.6092299      0.944913057       -24.60923      0.256769955      61.1428572
42.68                0.257854153      61.0392264      0.944568994     -24.7201319      0.944568994     -24.7201319       0.25785539       61.039194
42.87                0.258939318      60.9354898      0.944223777     -24.8310788      0.944223777     -24.8310788      0.258940591      60.9354544
43.06                0.260024251      60.8316767      0.943877404     -24.9420711      0.943877404     -24.9420711      0.260025559      60.8316382
43.25                0.261108952      60.7277871      0.943529876      -25.053109      0.943529876      -25.053109      0.261110295      60.7277455
43.44                0.262193422      60.6238208      0.943181191      -25.164193      0.943181191      -25.164193      0.262194798       60.623776
43.63                0.263277661      60.5197777      0.942831347     -25.2753233      0.942831347     -25.2753233      0.263279069      60.5197298
43.82                 0.26436167      60.4156578      0.942480345     -25.3865003      0.942480345     -25.3865003      0.264363109      60.4156067
44.01                0.265445448      60.3114609      0.942128182     -25.4977242      0.942128182     -25.4977243      0.265446919      60.3114066
44.2                 0.266528998      60.2071869      0.941774858     -25.6089956      0.941774858     -25.6089956      0.266530498      60.2071294
44.39                0.267612318      60.1028357      0.941420371     -25.7203145      0.941420371     -25.7203145      0.267613847      60.1027751
44.58                 0.26869541      59.9984072      0.941064721     -25.8316815      0.941064721     -25.8316815      0.268696966      59.9983434
44.77                0.269778274      59.8939013      0.940707906     -25.9430968      0.940707906     -25.9430968      0.269779857      59.8938343
44.96                 0.27086091      59.7893178      0.940349925     -26.0545607      0.940349925     -26.0545608      0.270862518      59.7892476
45.15                0.271943317      59.6846566      0.939990778     -26.1660737      0.939990778     -26.1660737      0.271944951      59.6845832
45.34                0.273025498      59.5799176      0.939630463     -26.2776359      0.939630463     -26.2776359      0.273027155       59.579841
45.53                0.274107451      59.4751005      0.939268979     -26.3892478      0.939268979     -26.3892478      0.274109131      59.4750208
45.72                0.275189177      59.3702054      0.938906325     -26.5009096      0.938906325     -26.5009097      0.275190879      59.3701225
45.91                0.276270676      59.2652319        0.9385425     -26.6126218        0.9385425     -26.6126218      0.276272399       59.265146
46.1                 0.277351948        59.16018      0.938177502     -26.7243846      0.938177502     -26.7243846      0.277353691       59.160091
46.29                0.278432993      59.0550495      0.937811332     -26.8361983      0.937811332     -26.8361984      0.278434755      59.0549574
46.48                0.279513812      58.9498403      0.937443987     -26.9480634      0.937443987     -26.9480634      0.279515591      58.9497451
46.67                0.280594404      58.8445521      0.937075466       -27.05998      0.937075466     -27.0599801        0.2805962      58.8444539
46.86                0.281674768      58.7391848      0.936705769     -27.1719487      0.936705768     -27.1719487      0.281676581      58.7390837
47.05                0.282754906      58.6337383      0.936334893     -27.2839695      0.936334893     -27.2839696      0.282756734      58.6336342
47.24                0.283834817      58.5282123      0.935962839      -27.396043      0.935962839      -27.396043      0.283836659      58.5281052
47.43                0.284914501      58.4226067      0.935589605     -27.5081694      0.935589605     -27.5081695      0.284916356      58.4224967
47.62                0.285993958      58.3169212       0.93521519     -27.6203491       0.93521519     -27.6203492      0.285995825      58.3168085
47.81                0.287073187      58.2111558      0.934839593     -27.7325824      0.934839593     -27.7325824      0.287075065      58.2110403
48                   0.288152188      58.1053102      0.934462813     -27.8448696      0.934462813     -27.8448696      0.288154076       58.105192
48.19                0.289230961      57.9993843      0.934084848      -27.957211      0.934084848     -27.9572111      0.289232859      57.9992633
48.38                0.290309506      57.8933778      0.933705697     -28.0696071      0.933705697     -28.0696071      0.290311412      57.8932541
48.57                0.291387823      57.7872905       0.93332536      -28.182058       0.93332536      -28.182058      0.291389736      57.7871643
48.76                 0.29246591      57.6811223      0.932943835     -28.2945641      0.932943835     -28.2945642      0.292467829      57.6809935
48.95                0.293543768       57.574873      0.932561121     -28.4071258      0.932561121     -28.4071259      0.293545693      57.5747417
49.14                0.294621396      57.4685423      0.932177217     -28.5197434      0.932177217     -28.5197435      0.294623325      57.4684086
49.33                0.295698793      57.3621301      0.931792122     -28.6324173      0.931792122     -28.6324173      0.295700726       57.361994
49.52                 0.29677596      57.2556361      0.931405835     -28.7451476      0.931405835     -28.7451476      0.296777895      57.2554977
49.71                0.297852895      57.1490601      0.931018355     -28.8579348      0.931018355     -28.8579349      0.297854832      57.1489195
49.9                 0.298929598       57.042402       0.93062968     -28.9707793       0.93062968     -28.9707793      0.298931536      57.0422592
50.09                0.300006068      56.9356615      0.930239809     -29.0836812      0.930239809     -29.0836812      0.300008006      56.9355166
50.28                0.301082306      56.8288384      0.929848742      -29.196641      0.929848742      -29.196641      0.301084242      56.8286915
50.47                0.302158309      56.7219325      0.929456477      -29.309659      0.929456477      -29.309659      0.302160244      56.7217836
50.66                0.303234077      56.6149436      0.929063013     -29.4227355      0.929063013     -29.4227355      0.303236009      56.6147928
50.85                 0.30430961      56.5078715       0.92866835     -29.5358708       0.92866835     -29.5358708      0.304311538      56.5077188
51.04                0.305384907       56.400716      0.928272485     -29.6490652      0.928272485     -29.6490652       0.30538683      56.4005615
51.23                0.306459966      56.2934767      0.927875418     -29.7623192      0.927875418     -29.7623192      0.306461884      56.2933206
51.42                0.307534787      56.1861536      0.927477148     -29.8756329      0.927477147      -29.875633      0.307536699      56.1859959
51.61                 0.30860937      56.0787464      0.927077673     -29.9890068      0.927077673     -29.9890068      0.308611275      56.0785871
51.8                 0.309683713      55.9712548      0.926676993     -30.1024412      0.926676993     -30.1024412      0.309685609      55.9710941
51.99                0.310757815      55.8636787      0.926275106     -30.2159363      0.926275106     -30.2159364      0.310759702      55.8635166
52.18                0.311831675      55.7560178      0.925872012     -30.3294926      0.925872012     -30.3294926      0.311833553      55.7558544
52.37                0.312905292      55.6482719      0.925467709     -30.4431103      0.925467709     -30.4431103      0.312907159      55.6481073
52.56                0.313978665      55.5404408      0.925062196     -30.5567898      0.925062196     -30.5567898      0.313980521      55.5402751
52.75                0.315051794      55.4325242      0.924655472     -30.6705313      0.924655472     -30.6705313      0.315053637      55.4323575
52.94                0.316124676       55.324522      0.924247537     -30.7843353      0.924247537     -30.7843353      0.316126507      55.3243543
53.13                 0.31719731      55.2164338      0.923838388      -30.898202      0.923838388      -30.898202      0.317199127      55.2162653
53.32                0.318269696      55.1082596      0.923428025     -31.0121318      0.923428025     -31.0121318      0.318271499      55.1080902
53.51                0.319341832      54.9999989      0.923016448      -31.126125      0.923016448      -31.126125       0.31934362      54.9998289
53.7                 0.320413717      54.8916517      0.922603654     -31.2401819      0.922603654     -31.2401819      0.320415489       54.891481
53.89                 0.32148535      54.7832176      0.922189643     -31.3543028      0.922189642     -31.3543028      0.321487104      54.7830464
54.08                0.322556728      54.6746965      0.921774413     -31.4684881      0.921774413     -31.4684881      0.322558466      54.6745249
54.27                0.323627852      54.5660881      0.921357964     -31.5827381      0.921357964     -31.5827381      0.323629571      54.5659162
54.46                0.324698718      54.4573922      0.920940295     -31.6970531      0.920940295     -31.6970531      0.324700418        54.45722
54.65                0.325769327      54.3486085      0.920521405     -31.8114334      0.920521405     -31.8114334      0.325771007      54.3484362
54.84                0.326839676      54.2397368      0.920101292     -31.9258794      0.920101292     -31.9258794      0.326841336      54.2395645
55.03                0.327909763       54.130777      0.919679956     -32.0403914      0.919679956     -32.0403914      0.327911402      54.1306046
55.22                0.328979588      54.0217287      0.919257395     -32.1549697      0.919257395     -32.1549698      0.328981206      54.0215565
55.41                0.330049148      53.9125917      0.918833609     -32.2696147      0.918833609     -32.2696147      0.330050744      53.9124197
55.6                 0.331118442      53.8033658      0.918408597     -32.3843266      0.918408597     -32.3843266      0.331120015      53.8031941
55.79                0.332187469      53.6940508      0.917982357     -32.4991058      0.917982357     -32.4991058      0.332189018      53.6938795
55.98                0.333256226      53.5846464      0.917554889     -32.6139526      0.917554889     -32.6139526      0.333257751      53.5844756
56.17                0.334324712      53.4751524      0.917126192     -32.7288673      0.917126192     -32.7288673      0.334326212      53.4749822
56.36                0.335392925      53.3655685      0.916696264     -32.8438503      0.916696264     -32.8438503        0.3353944       53.365399
56.55                0.336460863      53.2558946      0.916265105     -32.9589019      0.916265105     -32.9589019      0.336462312      53.2557259
56.74                0.337528524      53.1461304      0.915832714     -33.0740224      0.915832713     -33.0740224      0.337529947      53.1459625
56.93                0.338595907      53.0362757      0.915399089     -33.1892121      0.915399089     -33.1892121      0.338597303      53.0361087
57.12                0.339663009      52.9263301      0.914964231     -33.3044713      0.914964231     -33.3044713      0.339664378      52.9261643
57.31                0.340729828      52.8162936      0.914528137     -33.4198004      0.914528137     -33.4198004      0.340731169      52.8161289
57.5                 0.341796364      52.7061659      0.914090808     -33.5351997      0.914090808     -33.5351997      0.341797676      52.7060024
57.69                0.342862612      52.5959466      0.913652242     -33.6506696      0.913652241     -33.6506696      0.342863896      52.5957845
57.88                0.343928572      52.4856357      0.913212438     -33.7662102      0.913212437     -33.7662102      0.343929826       52.485475
58.07                0.344994241      52.3752329      0.912771395     -33.8818221      0.912771395     -33.8818221      0.344995466      52.3750737
58.26                0.346059618      52.2647379      0.912329113     -33.9975054      0.912329113     -33.9975054      0.346060812      52.2645803
58.45                0.347124699      52.1541505       0.91188559     -34.1132605       0.91188559     -34.1132605      0.347125863      52.1539946
58.64                0.348189483      52.0434705      0.911440827     -34.2290878      0.911440827     -34.2290878      0.348190616      52.0433164
58.83                0.349253968      51.9326976      0.910994821     -34.3449875      0.910994821     -34.3449875      0.349255069      51.9325455
59.02                0.350318151      51.8218317      0.910547572       -34.46096      0.910547572       -34.46096       0.35031922      51.8216815
59.21                 0.35138203      51.7108725       0.91009908     -34.5770055       0.91009908     -34.5770056      0.351383067      51.7107243
59.4                 0.352445602      51.5998197      0.909649343     -34.6931246      0.909649343     -34.6931246      0.352446606      51.5996737
59.59                0.353508865      51.4886732      0.909198361     -34.8093173      0.909198361     -34.8093173      0.353509837      51.4885294
59.78                0.354571817      51.3774326      0.908746132     -34.9255841      0.908746132     -34.9255841      0.354572756      51.3772912
59.97                0.355634456      51.2660979      0.908292657     -35.0419253      0.908292657     -35.0419253      0.355635361      51.2659589
60.16                0.356696778      51.1546687      0.907837934     -35.1583412      0.907837934     -35.1583412       0.35669765      51.1545322
60.35                0.357758782      51.0431449      0.907381963     -35.2748322      0.907381962     -35.2748322      0.357759619       51.043011
60.54                0.358820464      50.9315261      0.906924742     -35.3913985      0.906924742     -35.3913985      0.358821267      50.9313949
60.73                0.359881822      50.8198122      0.906466271     -35.5080404      0.906466271     -35.5080404      0.359882591      50.8196838
60.92                0.360942854       50.708003       0.90600655     -35.6247584       0.90600655     -35.6247584      0.360943588      50.7078774
61.11                0.362003557      50.5960982      0.905545578     -35.7415527      0.905545577     -35.7415527      0.362004256      50.5959756
61.3                 0.363063928      50.4840976      0.905083353     -35.8584236      0.905083353     -35.8584236      0.363064591       50.483978
61.49                0.364123964       50.372001      0.904619876     -35.9753715      0.904619876     -35.9753715      0.364124592      50.3718845
61.68                0.365183663      50.2598082      0.904155145     -36.0923967      0.904155145     -36.0923967      0.365184255      50.2596948
61.87                0.366243021      50.1475189      0.903689161     -36.2094995      0.903689161     -36.2094995      0.366243578      50.1474087
62.06                0.367302037      50.0351329      0.903221922     -36.3266802      0.903221921     -36.3266802      0.367302558      50.0350261
62.25                0.368360707        49.92265      0.902753427     -36.4439392      0.902753427     -36.4439392      0.368361192      49.9225466
62.44                0.369419028        49.81007      0.902283677     -36.5612767      0.902283677     -36.5612767      0.369419477      49.8099701
62.63                0.370476997      49.6973927       0.90181267     -36.6786931       0.90181267     -36.6786931      0.370477411      49.6972963
62.82                0.371534612      49.5846178      0.901340406     -36.7961888      0.901340406     -36.7961888      0.371534989       49.584525
63.01                0.372591869      49.4717451      0.900866885      -36.913764      0.900866885     -36.9137639       0.37259221       49.471656
63.2                 0.373648765      49.3587744      0.900392105      -37.031419      0.900392105      -37.031419       0.37364907      49.3586891
63.39                0.374705298      49.2457055      0.899916067     -37.1491542      0.899916067     -37.1491542      0.374705566       49.245624
63.58                0.375761464      49.1325382       0.89943877     -37.2669699       0.89943877     -37.2669699      0.375761696      49.1324606
63.77                 0.37681726      49.0192722      0.898960213     -37.3848665      0.898960213     -37.3848665      0.376817455      49.0191986
63.96                0.377872682      48.9059074      0.898480396     -37.5028442      0.898480396     -37.5028442      0.377872842      48.9058378
64.15                0.378927729      48.7924435      0.897999319     -37.6209034      0.897999319     -37.6209034      0.378927852       48.792378
64.34                0.379982396      48.6788803       0.89751698     -37.7390443       0.89751698     -37.7390443      0.379982482       48.678819
64.53                0.381036679      48.5652176       0.89703338     -37.8572674       0.89703338     -37.8572674       0.38103673      48.5651606
64.72                0.382090577      48.4514553      0.896548519     -37.9755729      0.896548519     -37.9755729      0.382090592      48.4514025
64.91                0.383144086       48.337593      0.896062395     -38.0939612      0.896062395     -38.0939612      0.383144064      48.3375445
65.1                 0.384197201      48.2236305      0.895575008     -38.2124325      0.895575008     -38.2124325      0.384197144      48.2235865
65.29                0.385249921      48.1095678      0.895086359     -38.3309873      0.895086359     -38.3309872      0.385249827      48.1095282
65.48                 0.38630224      47.9954044      0.894596447     -38.4496257      0.894596446     -38.4496257      0.386302111      47.9953694
65.67                0.387354157      47.8811404       0.89410527     -38.5683483       0.89410527     -38.5683482      0.387353993      47.8811099
65.86                0.388405667      47.7667753      0.893612831     -38.6871551       0.89361283     -38.6871551      0.388405467      47.7667495
66.05                0.389456767      47.6523091      0.893119127     -38.8060467      0.893119126     -38.8060467      0.389456532      47.6522879
66.24                0.390507454      47.5377415      0.892624158     -38.9250233      0.892624158     -38.9250233      0.390507183      47.5377251
66.43                0.391557723      47.4230723      0.892127925     -39.0440853      0.892127925     -39.0440852      0.391557418      47.4230607
66.62                0.392607571      47.3083014      0.891630428     -39.1632329      0.891630428     -39.1632328      0.392607231      47.3082945
66.81                0.393656995      47.1934284      0.891131665     -39.2824664      0.891131665     -39.2824664      0.393656621      47.1934264
67                   0.394705991      47.0784533      0.890631638     -39.4017863      0.890631638     -39.4017863      0.394705582      47.0784562
67.19                0.395754555      46.9633757      0.890130345     -39.5211929      0.890130345     -39.5211928      0.395754112      46.9633836
67.38                0.396802683      46.8481956      0.889627787     -39.6406863      0.889627787     -39.6406863      0.396802207      46.8482084
67.57                0.397850372      46.7329126      0.889123963     -39.7602671      0.889123963     -39.7602671      0.397849862      46.7329305
67.76                0.398897618      46.6175267      0.888618874     -39.8799355      0.888618874     -39.8799354      0.398897075      46.6175496
67.95                0.399944417      46.5020375      0.888112519     -39.9996918      0.888112519     -39.9996917      0.399943841      46.5020655
68.14                0.400990765       46.386445      0.887604899     -40.1195363      0.887604899     -40.1195363      0.400990156      46.3864781
68.33                0.402036658      46.2707488      0.887096013     -40.2394694      0.887096013     -40.2394694      0.402036017      46.2707871
68.52                0.403082093      46.1549488      0.886585862     -40.3594914      0.886585862     -40.3594914       0.40308142      46.1549923
68.71                0.404127065      46.0390449      0.886074445     -40.4796027      0.886074445     -40.4796027       0.40412636      46.0390935
68.9                  0.40517157      45.9230367      0.885561763     -40.5998035      0.885561762     -40.5998035      0.405170834      45.9230906
69.09                0.406215605      45.8069242      0.885047815     -40.7200942      0.885047815     -40.7200941      0.406214838      45.8069834
69.28                0.407259165      45.6907071      0.884532602      -40.840475      0.884532602      -40.840475      0.407258368      45.6907715
69.47                0.408302247      45.5743852      0.884016124     -40.9609464      0.884016124     -40.9609464      0.408301419      45.5744549
69.66                0.409344845      45.4579583      0.883498381     -41.0815087      0.883498381     -41.0815087      0.409343988      45.4580333
69.85                0.410386957      45.3414262      0.882979374     -41.2021621      0.882979374     -41.2021621       0.41038607      45.3415066
70.04                0.411428578      45.2247888      0.882459102     -41.3229071      0.882459102     -41.3229071      0.411427661      45.2248746
70.23                0.412469703      45.1080458      0.881937566     -41.4437439      0.881937565     -41.4437439      0.412468758       45.108137
70.42                0.413510329      44.9911971      0.881414765     -41.5646728      0.881414765     -41.5646728      0.413509355      44.9912936
70.61                0.414550451      44.8742424      0.880890702     -41.6856943      0.880890702     -41.6856942       0.41454945      44.8743444
70.8                 0.415590065      44.7571816      0.880365375     -41.8068085      0.880365375     -41.8068085      0.415589036       44.757289
70.99                0.416629166      44.6400145      0.879838785     -41.9280159      0.879838785     -41.9280159      0.416628111      44.6401273
71.18                0.417667751      44.5227408      0.879310932     -42.0493168      0.879310932     -42.0493168      0.417666669       44.522859
71.37                0.418705815      44.4053605      0.878781817     -42.1707115      0.878781817     -42.1707114      0.418704707      44.4054841
71.56                0.419743353      44.2878732      0.878251441     -42.2922003      0.878251441     -42.2922003       0.41974222      44.2880023
71.75                0.420780362      44.1702789      0.877719803     -42.4137836      0.877719803     -42.4137835      0.420779204      44.1704134
71.94                0.421816836      44.0525773      0.877186905     -42.5354616      0.877186905     -42.5354616      0.421815654      44.0527173
72.13                0.422852772      43.9347682      0.876652747     -42.6572348      0.876652747     -42.6572348      0.422851565      43.9349136
72.32                0.423888164      43.8168515      0.876117329     -42.7791035      0.876117329     -42.7791034      0.423886934      43.8170024
72.51                0.424923009       43.698827      0.875580652     -42.9010679      0.875580652     -42.9010679      0.424921755      43.6989833
72.7                 0.425957301      43.5806945      0.875042716     -43.0231285      0.875042716     -43.0231284      0.425956025      43.5808561
72.89                0.426991036      43.4624537      0.874503523     -43.1452855      0.874503523     -43.1452854      0.426989738      43.4626208
73.08                0.428024209      43.3441045      0.873963073     -43.2675392      0.873963073     -43.2675392       0.42802289       43.344277
73.27                0.429056817      43.2256468      0.873421367     -43.3898901      0.873421367     -43.3898901      0.429055476      43.2258247
73.46                0.430088853      43.1070803      0.872878405     -43.5123385      0.872878405     -43.5123384      0.430087492      43.1072635
73.65                0.431120314      42.9884048      0.872334188     -43.6348846      0.872334188     -43.6348846      0.431118933      42.9885934
73.84                0.432151194      42.8696202      0.871788717     -43.7575289      0.871788717     -43.7575288      0.432149794      42.8698142
74.03                 0.43318149      42.7507263      0.871241993     -43.8802716      0.871241994     -43.8802715      0.433180071      42.7509256
74.22                0.434211195      42.6317229      0.870694017     -44.0031131      0.870694017      -44.003113      0.434209758      42.6319275
74.41                0.435240306      42.5126098       0.87014479     -44.1260537       0.87014479     -44.1260536      0.435238851      42.5128196
74.6                 0.436268818      42.3933868      0.869594312     -44.2490937      0.869594312     -44.2490937      0.436267345      42.3936019
74.79                0.437296725      42.2740538      0.869042585     -44.3722336      0.869042585     -44.3722336      0.437295236      42.2742741
74.98                0.438324023      42.1546105       0.86848961     -44.4954736       0.86848961     -44.4954736      0.438322518       42.154836
75.17                0.439350706      42.0350568      0.867935387     -44.6188141      0.867935387     -44.6188141      0.439349186      42.0352875
75.36                0.440376771      41.9153925      0.867379918     -44.7422554      0.867379918     -44.7422554      0.440375235      41.9156283
75.55                0.441402211      41.7956174      0.866823204     -44.8657979      0.866823204     -44.8657979      0.441400661      41.7958584
75.74                0.442427023      41.6757313      0.866265246     -44.9894419      0.866265246     -44.9894418      0.442425459      41.6759774
75.93                  0.4434512      41.5557341      0.865706045     -45.1131877      0.865706045     -45.1131876      0.443449623      41.5559852
76.12                0.444474738      41.4356255      0.865145603     -45.2370357      0.865145603     -45.2370356      0.444473149      41.4358816
76.31                0.445497632      41.3154054       0.86458392     -45.3609862       0.86458392     -45.3609861      0.445496031      41.3156665
76.5                 0.446519877      41.1950736      0.864020999     -45.4850395      0.864020999     -45.4850395      0.446518264      41.1953397
76.69                0.447541467      41.0746299       0.86345684     -45.6091961       0.86345684     -45.6091961      0.447539843      41.0749009
76.88                0.448562398      40.9540741      0.862891445     -45.7334563      0.862891445     -45.7334562      0.448560764        40.95435
77.07                0.449582664      40.8334061      0.862324815     -45.8578203      0.862324815     -45.8578203       0.44958102      40.8336868
77.26                 0.45060226      40.7126257      0.861756951     -45.9822886      0.861756951     -45.9822885      0.450600607      40.7129111
77.45                 0.45162118      40.5917326      0.861187856     -46.1068615      0.861187856     -46.1068614      0.451619519      40.5920228
77.64                0.452639421      40.4707267       0.86061753     -46.2315393      0.860617531     -46.2315393      0.452637751      40.4710216
77.83                0.453656975      40.3496079      0.860045976     -46.3563224      0.860045976     -46.3563224      0.453655298      40.3499074
78.02                0.454673839      40.2283758      0.859473195     -46.4812112      0.859473195     -46.4812112      0.454672155      40.2286799
78.21                0.455690006      40.1070304      0.858899188      -46.606206      0.858899188     -46.6062059      0.455688316      40.1073391
78.4                 0.456705471      39.9855715      0.858323957     -46.7313071      0.858323957      -46.731307      0.456703776      39.9858846
78.59                0.457720229      39.8639989      0.857747504     -46.8565149      0.857747505     -46.8565148      0.457718529      39.8643164
78.78                0.458734275      39.7423123      0.857169831     -46.9818297      0.857169832     -46.9818297       0.45873257      39.7426343
78.97                0.459747603      39.6205117       0.85659094      -47.107252       0.85659094      -47.107252      0.459745894       39.620838
79.16                0.460760207      39.4985967      0.856010832     -47.2327821      0.856010832      -47.232782      0.460758495      39.4989273
79.35                0.461772083      39.3765674      0.855429509     -47.3584202      0.855429509     -47.3584202      0.461770368      39.3769022
79.54                0.462783224      39.2544233      0.854846974     -47.4841669      0.854846974     -47.4841668      0.462781507      39.2547623
79.73                0.463793625      39.1321645      0.854263228     -47.6100223      0.854263228     -47.6100223      0.463791906      39.1325075
79.92                0.464803281      39.0097906      0.853678273      -47.735987      0.853678273      -47.735987       0.46480156      39.0101377
80.11                0.465812185      38.8873015      0.853092111     -47.8620612      0.853092111     -47.8620612      0.465810464      38.8876526
80.3                 0.466820333       38.764697      0.852504745     -47.9882454      0.852504745     -47.9882454      0.466818612       38.765052
80.49                0.467827719       38.641977      0.851916176     -48.1145398      0.851916176     -48.1145398      0.467825998      38.6423359
80.68                0.468834336      38.5191412      0.851326407     -48.2409449      0.851326408     -48.2409449      0.468832617      38.5195038
80.87                 0.46984018      38.3961894      0.850735441      -48.367461      0.850735441      -48.367461      0.469838462      38.3965558
81.06                0.470845244      38.2731215      0.850143278     -48.4940885      0.850143278     -48.4940885      0.470843529      38.2734915
81.25                0.471849524      38.1499373      0.849549922     -48.6208278      0.849549923     -48.6208277      0.471847811      38.1503109
81.44                0.472853012      38.0266365      0.848955376     -48.7476792      0.848955376     -48.7476791      0.472851302      38.0270136
81.63                0.473855704       37.903219      0.848359641      -48.874643      0.848359641      -48.874643      0.473853997      37.9035996
81.82                0.474857593      37.7796846      0.847762719     -49.0017197       0.84776272     -49.0017197      0.474855891      37.7800686
82.01                0.475858674      37.6560332      0.847164615     -49.1289097      0.847164615     -49.1289097      0.475856976      37.6564205
82.2                  0.47685894      37.5322644      0.846565329     -49.2562133      0.846565329     -49.2562132      0.476857248      37.5326549
82.39                0.477858387      37.4083781      0.845964865     -49.3836309      0.845964865     -49.3836308        0.4778567      37.4087719
82.58                0.478857007      37.2843742      0.845363226     -49.5111628      0.845363226     -49.5111627      0.478855327       37.284771
82.77                0.479854796      37.1602524      0.844760413     -49.6388095      0.844760413     -49.6388094      0.479853122      37.1606523
82.96                0.480851747      37.0360125       0.84415643     -49.7665713      0.844156431     -49.7665712       0.48085008      37.0364154
83.15                0.481847854      36.9116544       0.84355128     -49.8944486       0.84355128     -49.8944486      0.481846195      36.9120601
83.34                0.482843111      36.7871778      0.842944965     -50.0224418      0.842944966     -50.0224418      0.482841459      36.7875864
83.53                0.483837512      36.6625826      0.842337489     -50.1505513      0.842337489     -50.1505513      0.483835869      36.6629939
83.72                0.484831051      36.5378685      0.841728854     -50.2787775      0.841728855     -50.2787775      0.484829417      36.5382824
83.91                0.485823721      36.4130354      0.841119064     -50.4071207      0.841119064     -50.4071207      0.485822097      36.4134519
84.1                 0.486815518       36.288083       0.84050812     -50.5355814      0.840508121     -50.5355814      0.486813903       36.288502
84.29                0.487806434      36.1630111      0.839896028     -50.6641599      0.839896028     -50.6641599       0.48780483      36.1634325
84.48                0.488796464      36.0378196      0.839282789     -50.7928567      0.839282789     -50.7928566       0.48879487      36.0382434
84.67                0.489785601      35.9125082      0.838668407     -50.9216721      0.838668407      -50.921672      0.489784018      35.9129342
84.86                0.490773839      35.7870767      0.838052885     -51.0506065      0.838052885     -51.0506064      0.490772268       35.787505
85.05                0.491761172       35.661525      0.837436226     -51.1796603      0.837436226     -51.1796602      0.491759612      35.6619554
85.24                0.492747594      35.5358528      0.836818434     -51.3088339      0.836818435     -51.3088339      0.492746046      35.5362852
85.43                0.493733097      35.4100599      0.836199513     -51.4381278      0.836199513     -51.4381278      0.493731562      35.4104943
85.62                0.494717677      35.2841461      0.835579465     -51.5675424      0.835579466     -51.5675423      0.494716155      35.2845824
85.81                0.495701326      35.1581113      0.834958295     -51.6970779      0.834958295     -51.6970779      0.495699817      35.1585493
86                   0.496684038       35.031955      0.834336005     -51.8267349      0.834336005     -51.8267349      0.496682543      35.0323948
86.19                0.497665808      34.9056773        0.8337126     -51.9565138        0.8337126     -51.9565138      0.497664326      34.9061187
86.38                0.498646627      34.7792778      0.833088082      -52.086415      0.833088083     -52.0864149       0.49864516      34.7797207
86.57                0.499626491      34.6527564      0.832462457     -52.2164388      0.832462458     -52.2164388      0.499625037      34.6532008
86.76                0.500605392      34.5261128      0.831835728     -52.3465857      0.831835728     -52.3465857      0.500603953      34.5265585
86.95                0.501583323      34.3993468      0.831207897     -52.4768562      0.831207898     -52.4768562        0.5015819      34.3997938
87.14                 0.50256028      34.2724581      0.830578971     -52.6072506      0.830578971     -52.6072506      0.502558872      34.2729065
87.33                0.503536254      34.1454467      0.829948951     -52.7377694      0.829948952     -52.7377694      0.503534861      34.1458962
87.52                0.504511239      34.0183122      0.829317844      -52.868413      0.829317844      -52.868413      0.504509862      34.0187627
87.71                0.505485229      33.8910544      0.828685651     -52.9991818      0.828685652     -52.9991818      0.505483868      33.8915059
87.9                 0.506458216      33.7636731      0.828052378     -53.1300763      0.828052379     -53.1300763      0.506456872      33.7641256
88.09                0.507430196      33.6361681      0.827418029     -53.2610969       0.82741803     -53.2610968      0.507428868      33.6366214
88.28                0.508401159      33.5085391      0.826782608      -53.392244      0.826782609     -53.3922439      0.508399849      33.5089932
88.47                0.509371101       33.380786       0.82614612      -53.523518       0.82614612      -53.523518      0.509369807      33.3812407
88.66                0.510340013      33.2529084      0.825508568     -53.6549195      0.825508568     -53.6549194      0.510338737      33.2533637
88.85                 0.51130789      33.1249062      0.824869957     -53.7864488      0.824869957     -53.7864487      0.511306631       33.125362
89.04                0.512274725      32.9967791      0.824230292     -53.9181063      0.824230292     -53.9181063      0.512273483      32.9972353
89.23                 0.51324051      32.8685269      0.823589576     -54.0498927      0.823589577     -54.0498926      0.513239286      32.8689835
89.42                0.514205239      32.7401493      0.822947816     -54.1818082      0.822947817     -54.1818081      0.514204033      32.7406062
89.61                0.515168904      32.6116462      0.822305015     -54.3138533      0.822305016     -54.3138533      0.515167716      32.6121032
89.8                   0.5161315      32.4830172      0.821661178     -54.4460286      0.821661179     -54.4460285       0.51613033      32.4834743
89.99                0.517093018      32.3542621       0.82101631     -54.5783344      0.821016311     -54.5783344      0.517091867      32.3547193
90.18                0.518053453      32.2253807      0.820370416     -54.7107712      0.820370417     -54.7107712       0.51805232      32.2258378
90.37                0.519012797      32.0963727      0.819723501     -54.8433396      0.819723501     -54.8433395      0.519011682      32.0968298
90.56                0.519971042       31.967238      0.819075569     -54.9760398      0.819075569     -54.9760398      0.519969946      31.9676948
90.75                0.520928182      31.8379761      0.818426625     -55.1088725      0.818426626     -55.1088725      0.520927105      31.8384327
90.94                 0.52188421       31.708587      0.817776676     -55.2418381      0.817776676     -55.2418381      0.521883151      31.7090432
91.13                0.522839119      31.5790702      0.817125725     -55.3749371      0.817125726      -55.374937      0.522838079       31.579526
91.32                0.523792901      31.4494257      0.816473778     -55.5081699      0.816473779     -55.5081698      0.523791879       31.449881
91.51                0.524745549      31.3196531      0.815820841      -55.641537      0.815820842      -55.641537      0.524744546      31.3201077
91.7                 0.525697056      31.1897521      0.815166918      -55.775039      0.815166919     -55.7750389      0.525696072      31.1902061
91.89                0.526647414      31.0597225      0.814512016     -55.9086762      0.814512016     -55.9086762       0.52664645      31.0601758
92.08                0.527596617       30.929564      0.813856139     -56.0424493      0.813856139     -56.0424493      0.527595672      30.9300166
92.27                0.528544657      30.7992764      0.813199292     -56.1763587      0.813199293     -56.1763586       0.52854373      30.7997281
92.46                0.529491527      30.6688595      0.812541483     -56.3104048      0.812541484     -56.3104048      0.529490619      30.6693102
92.65                0.530437219      30.5383128      0.811882716     -56.4445883      0.811882717     -56.4445883      0.530436329      30.5387625
92.84                0.531381725      30.4076362      0.811222997     -56.5789096      0.811222997     -56.5789095      0.531380855      30.4080848
93.03                0.532325039      30.2768293      0.810562332     -56.7133691      0.810562332     -56.7133691      0.532324187      30.2772769
93.22                0.533267153       30.145892      0.809900726     -56.8479675      0.809900727     -56.8479675       0.53326632      30.1463383
93.41                0.534208059      30.0148239      0.809238186     -56.9827053      0.809238187     -56.9827053      0.534207244      30.0152689
93.6                 0.535147749      29.8836248      0.808574718     -57.1175829      0.808574718     -57.1175829      0.535146953      29.8840684
93.79                0.536086217      29.7522943      0.807910327     -57.2526009      0.807910328     -57.2526009       0.53608544      29.7527365
93.98                0.537023454      29.6208322       0.80724502     -57.3877598      0.807245021     -57.3877598      0.537022695      29.6212729
94.17                0.537959453      29.4892381      0.806578803     -57.5230602      0.806578803     -57.5230601      0.537958712      29.4896774
94.36                0.538894206      29.3575119      0.805911682     -57.6585025      0.805911683     -57.6585025      0.538893483      29.3579495
94.55                0.539827705      29.2256532      0.805243664     -57.7940874      0.805243664     -57.7940873         0.539827      29.2260891
94.74                0.540759942      29.0936616      0.804574754     -57.9298153      0.804574755     -57.9298153      0.540759255      29.0940959
94.93                 0.54169091       28.961537       0.80390496     -58.0656868      0.803904961     -58.0656868      0.541690241      28.9619695
95.12                0.542620601       28.829279      0.803234288     -58.2017025      0.803234288     -58.2017025      0.542619949      28.8297096
95.31                0.543549006      28.6968873      0.802562744      -58.337863      0.802562744     -58.3378629      0.543548372       28.697316
95.5                 0.544476119      28.5643616      0.801890335     -58.4741687      0.801890336     -58.4741686      0.544475501      28.5647883
95.69                 0.54540193      28.4317016      0.801217068     -58.6106202      0.801217069     -58.6106202       0.54540133      28.4321263
95.88                0.546326432       28.298907       0.80054295     -58.7472181      0.800542951     -58.7472181      0.546325848      28.2993296
96.07                0.547249617      28.1659774      0.799867988     -58.8839631      0.799867988      -58.883963       0.54724905      28.1663979
96.26                0.548171476      28.0329127      0.799192188     -59.0208556      0.799192188     -59.0208555      0.548170926      28.0333309
96.45                0.549092002      27.8997123      0.798515557     -59.1578962      0.798515558     -59.1578962      0.549091468      27.9001283
96.64                0.550011186      27.7663761      0.797838103     -59.2950856      0.797838104     -59.2950856      0.550010668      27.7667898
96.83                0.550929021      27.6329036      0.797159833     -59.4324243      0.797159834     -59.4324242      0.550928518       27.633315
97.02                0.551845497      27.4992946      0.796480754     -59.5699129      0.796480755     -59.5699129      0.551845009      27.4997036
97.21                0.552760606      27.3655488      0.795800873      -59.707552      0.795800874      -59.707552      0.552760134      27.3659554
97.4                  0.55367434      27.2316657      0.795120198     -59.8453423      0.795120199     -59.8453422      0.553673883      27.2320698
97.59                0.554586692      27.0976451      0.794438736     -59.9832842      0.794438736     -59.9832842      0.554586249      27.0980467
97.78                0.555497651      26.9634867      0.793756494     -60.1213786      0.793756495     -60.1213785      0.555497222      26.9638857
97.97                 0.55640721        26.82919      0.793073481     -60.2596259      0.793073482     -60.2596258      0.556406795      26.8295864
98.16                 0.55731536      26.6947548      0.792389704     -60.3980267      0.792389704     -60.3980267      0.557314959      26.6951485
98.35                0.558222092      26.5601807       0.79170517     -60.5365818      0.791705171     -60.5365818      0.558221705      26.5605717
98.54                0.559127399      26.4254674      0.791019888     -60.6752918      0.791019888     -60.6752918      0.559127025      26.4258556
98.73                0.560031271      26.2906144      0.790333865     -60.8141573      0.790333865     -60.8141572      0.560030909      26.2909999
98.92                0.560933699      26.1556215      0.789647109     -60.9531789       0.78964711     -60.9531789       0.56093335      26.1560041
99.11                0.561834674      26.0204883      0.788959629     -61.0923573       0.78895963     -61.0923573      0.561834338       26.020868
99.3                 0.562734189      25.8852144      0.788271432     -61.2316932      0.788271433     -61.2316931      0.562733864      25.8855912
99.49                0.563632233      25.7497994      0.787582527     -61.3711871      0.787582527     -61.3711871       0.56363192      25.7501734
99.68                0.564528799      25.6142431      0.786892921     -61.5108399      0.786892922     -61.5108399      0.564528497      25.6146141
99.87                0.565423876      25.4785449      0.786202624     -61.6506521      0.786202625     -61.6506521      0.565423585      25.4789129
100.06               0.566317457      25.3427047      0.785511644     -61.7906245      0.785511644     -61.7906244      0.566317176      25.3430696
100.25               0.567209531      25.2067219      0.784819988     -61.9307576      0.784819989     -61.9307576      0.567209261      25.2070838
100.44                0.56810009      25.0705962      0.784127667     -62.0710523      0.784127667     -62.0710523      0.568099829       25.070955
100.63               0.568989124      24.9343272      0.783434687     -62.2115093      0.783434688     -62.2115092      0.568988873      24.9346829
100.82               0.569876625      24.7979145      0.782741059     -62.3521291       0.78274106     -62.3521291      0.569876383      24.7982671
101.01               0.570762582      24.6613577      0.782046791     -62.4929125      0.782046791     -62.4929125      0.570762349      24.6617071
101.2                0.571646987      24.5246565      0.781351891     -62.6338603      0.781351892     -62.6338603      0.571646762      24.5250028
101.39                0.57252983      24.3878105      0.780656369     -62.7749732       0.78065637     -62.7749732      0.572529613      24.3881535
101.58               0.573411102      24.2508192      0.779960234     -62.9162518      0.779960235     -62.9162518      0.573410893       24.251159
101.77               0.574290793      24.1136822      0.779263495      -63.057697      0.779263495      -63.057697      0.574290591      24.1140187
101.96               0.575168893      23.9763992       0.77856616     -63.1993094      0.778566161     -63.1993094      0.575168698      23.9767324
102.15               0.576045393      23.8389697       0.77786824     -63.3410899      0.777868241     -63.3410899      0.576045205      23.8392997
102.34               0.576920284      23.7013933      0.777169744     -63.4830391      0.777169744     -63.4830391      0.576920101        23.70172
102.53               0.577793554      23.5636696      0.776470681     -63.6251579      0.776470681     -63.6251579      0.577793377       23.563993
102.72               0.578665195      23.4257982       0.77577106      -63.767447       0.77577106     -63.7674469      0.578665023      23.4261182
102.91               0.579535197      23.2877787      0.775070891     -63.9099071      0.775070892     -63.9099071       0.57953503      23.2880954
103.1                0.580403549      23.1496105      0.774370185     -64.0525391      0.774370185     -64.0525391      0.580403386      23.1499239
103.29               0.581270242      23.0112934       0.77366895     -64.1953438       0.77366895     -64.1953437      0.581270083      23.0116034
103.48               0.582135265      22.8728269      0.772967196     -64.3383219      0.772967196     -64.3383218       0.58213511      22.8731335
103.67               0.582998608      22.7342105      0.772264934     -64.4814742      0.772264934     -64.4814742      0.582998457      22.7345137
103.86               0.583860262      22.5954438      0.771562173     -64.6248016      0.771562173     -64.6248016      0.583860113      22.5957436
104.05               0.584720215      22.4565263      0.770858923     -64.7683049      0.770858923     -64.7683049      0.584720069      22.4568228
104.24               0.585578458      22.3174576      0.770155195     -64.9119849      0.770155195     -64.9119849      0.585578313      22.3177507
104.43               0.586434979      22.1782373      0.769450999     -65.0558424      0.769450999     -65.0558424      0.586434837       22.178527
104.62               0.587289769      22.0388649      0.768746345     -65.1998783      0.768746345     -65.1998783      0.587289628      22.0391512
104.81               0.588142817      21.8993399      0.768041243     -65.3440935      0.768041243     -65.3440934      0.588142677      21.8996228
105                  0.588994112      21.7596619      0.767335705     -65.4884887      0.767335705     -65.4884887      0.588993972      21.7599414
105.19               0.589843643      21.6198304       0.76662974     -65.6330649       0.76662974     -65.6330649      0.589843504      21.6201065
105.38               0.590691401      21.4798449      0.765923359     -65.7778229      0.765923359     -65.7778229       0.59069126      21.4801176
105.57               0.591537372       21.339705      0.765216573     -65.9227636      0.765216573     -65.9227636      0.591537231      21.3399743
105.76               0.592381548      21.1994102      0.764509393     -66.0678879      0.764509394     -66.0678879      0.592381406      21.1996761
105.95               0.593223917        21.05896       0.76380183     -66.2131967       0.76380183     -66.2131967      0.593223773      21.0592225
106.14               0.594064467      20.9183539      0.763093894      -66.358691      0.763093895     -66.3586909      0.594064321      20.9186131
106.33               0.594903187      20.7775915      0.762385598     -66.5043715      0.762385598     -66.5043715       0.59490304      20.7778473
106.52               0.595740067      20.6366722      0.761676951     -66.6502393      0.761676951     -66.6502393      0.595739917      20.6369247
106.71               0.596575095      20.4955956      0.760967965     -66.7962952      0.760967966     -66.7962952      0.596574942      20.4958447
106.9                0.597408259      20.3543611      0.760258652     -66.9425403      0.760258652     -66.9425403      0.597408103      20.3546069
107.09               0.598239548      20.2129682      0.759549023     -67.0889755      0.759549023     -67.0889755      0.598239388      20.2132107
107.28               0.599068951      20.0714165      0.758839089     -67.2356016      0.758839089     -67.2356016      0.599068786      20.0716557
107.47               0.599896455      19.9297055      0.758128862     -67.3824198      0.758128863     -67.3824198      0.599896286      19.9299414
107.66               0.600722049      19.7878345      0.757418354      -67.529431      0.757418355      -67.529431      0.600721875      19.7880671
107.85               0.601545721      19.6458032      0.756707577     -67.6766361      0.756707577     -67.6766361      0.601545542      19.6460325
108.04               0.602367459      19.5036109      0.755996541     -67.8240362      0.755996542     -67.8240362      0.602367275       19.503837
108.23               0.603187251      19.3612572       0.75528526     -67.9716322      0.755285261     -67.9716322      0.603187061      19.3614801
108.42               0.604005085      19.2187415      0.754573746     -68.1194253      0.754573746     -68.1194253      0.604004889      19.2189612
108.61               0.604820949      19.0760633      0.753862009     -68.2674163       0.75386201     -68.2674163      0.604820747      19.0762798
108.8                0.605634831       18.933222      0.753150063     -68.4156064      0.753150064     -68.4156064      0.605634621      18.9334354
108.99               0.606446717      18.7902171      0.752437921     -68.5639966      0.752437921     -68.5639966      0.606446501      18.7904274
109.18               0.607256596      18.6470481      0.751725593      -68.712588      0.751725593      -68.712588      0.607256372      18.6472552
109.37               0.608064454      18.5037144      0.751013093     -68.8613816      0.751013093     -68.8613816      0.608064223      18.5039184
109.56                0.60887028      18.3602155      0.750300433     -69.0103784      0.750300433     -69.0103784      0.608870041      18.3604164
109.75               0.609674061      18.2165507      0.749587626     -69.1595797      0.749587627     -69.1595797      0.609673813      18.2167486
109.94               0.610475782      18.0727196      0.748874685     -69.3089864      0.748874686     -69.3089864      0.610475526      18.0729145
110.13               0.611275433      17.9287215      0.748161623     -69.4585998      0.748161623     -69.4585998      0.611275168      17.9289135
110.32               0.612072998       17.784556      0.747448451     -69.6084208      0.747448452     -69.6084208      0.612072724       17.784745
110.51               0.612868466      17.6402224      0.746735185     -69.7584507      0.746735185     -69.7584507      0.612868183      17.6404084
110.7                0.613661823      17.4957201      0.746021835     -69.9086906      0.746021835     -69.9086906       0.61366153      17.4959032
110.89               0.614453056      17.3510486      0.745308416     -70.0591416      0.745308416     -70.0591416      0.614452753      17.3512289
111.08                0.61524215      17.2062072      0.744594942      -70.209805      0.744594942      -70.209805      0.615241837      17.2063847
111.27               0.616029093      17.0611955      0.743881424     -70.3606818      0.743881424     -70.3606818       0.61602877      17.0613701
111.46                0.61681387      16.9160127      0.743167877     -70.5117733      0.743167877     -70.5117733      0.616813537      16.9161846
111.65               0.617596468      16.7706584      0.742454315     -70.6630807      0.742454315     -70.6630807      0.617596124      16.7708275
111.84               0.618376873      16.6251318       0.74174075     -70.8146051       0.74174075     -70.8146051      0.618376518      16.6252982
112.03               0.619155071      16.4794324      0.741027198     -70.9663479      0.741027198     -70.9663479      0.619154704      16.4795961
112.22               0.619931047      16.3335596       0.74031367     -71.1183102       0.74031367     -71.1183102      0.619930669      16.3337207
112.41               0.620704787      16.1875127      0.739600183     -71.2704933      0.739600183     -71.2704933      0.620704398      16.1876712
112.6                0.621476277      16.0412912      0.738886748     -71.4228985      0.738886748     -71.4228985      0.621475876      16.0414471
112.79               0.622245502      15.8948944      0.738173381      -71.575527      0.738173381      -71.575527      0.622245089      15.8950478
112.98               0.623012447      15.7483217      0.737460096     -71.7283801      0.737460096     -71.7283801      0.623012023      15.7484726
113.17               0.623777099      15.6015724      0.736746907     -71.8814592      0.736746907     -71.8814592      0.623776662      15.6017208
113.36                0.62453944       15.454646      0.736033828     -72.0347655      0.736033829     -72.0347655      0.624538992       15.454792
113.55               0.625299458      15.3075417      0.735320875     -72.1883003      0.735320875     -72.1883003      0.625298997      15.3076853
113.74               0.626057136       15.160259       0.73460806      -72.342065      0.734608061      -72.342065      0.626056663      15.1604002
113.93               0.626812459      15.0127971        0.7338954      -72.496061        0.7338954      -72.496061      0.626811974      15.0129361
114.12               0.627565412      14.8651555      0.733182909     -72.6502896      0.733182909     -72.6502896      0.627564914      14.8652922
114.31               0.628315979      14.7173335      0.732470602     -72.8047521      0.732470602     -72.8047521      0.628315469      14.7174679
114.5                0.629064144      14.5693304      0.731758493     -72.9594501      0.731758493     -72.9594501      0.629063622      14.5694626
114.69               0.629809892      14.4211455      0.731046598     -73.1143849      0.731046598     -73.1143849      0.629809357      14.4212756
114.88               0.630553207      14.2727783      0.730334932     -73.2695578      0.730334932     -73.2695578      0.630552659      14.2729062
115.07               0.631294072      14.1242279       0.72962351     -73.4249705       0.72962351     -73.4249705      0.631293511      14.1243537
115.26               0.632032471      13.9754938      0.728912348     -73.5806242      0.728912348     -73.5806242      0.632031897      13.9756176
115.45               0.632768387      13.8265752       0.72820146     -73.7365205       0.72820146     -73.7365205      0.632767801       13.826697
115.64               0.633501805      13.6774715      0.727490863     -73.8926609      0.727490863     -73.8926609      0.633501206      13.6775913
115.83               0.634232707      13.5281819      0.726780572     -74.0490468      0.726780572     -74.0490468      0.634232095      13.5282998
116.02               0.634961077      13.3787059      0.726070603     -74.2056797      0.726070603     -74.2056797      0.634960452      13.3788219
116.21               0.635686897      13.2290426      0.725360971     -74.3625612      0.725360971     -74.3625613       0.63568626      13.2291567
116.4                 0.63641015      13.0791914      0.724651693     -74.5196929      0.724651693     -74.5196929        0.6364095      13.0793037
116.59                0.63713082      12.9291516      0.723942785     -74.6770762      0.723942785     -74.6770763      0.637130157      12.9292621
116.78               0.637848887      12.7789224      0.723234262     -74.8347128      0.723234262     -74.8347128      0.637848213      12.7790313
116.97               0.638564336      12.6285032      0.722526141     -74.9926043      0.722526141     -74.9926043      0.638563649      12.6286104
117.16               0.639277148      12.4778932      0.721818438     -75.1507522      0.721818438     -75.1507522      0.639276449      12.4779987
117.35               0.639987305      12.3270917       0.72111117     -75.3091581       0.72111117     -75.3091581      0.639986594      12.3271956
117.54               0.640694789       12.176098      0.720404353     -75.4678238      0.720404353     -75.4678238      0.640694065      12.1762004
117.73               0.641399581      12.0249114      0.719698003     -75.6267508      0.719698003     -75.6267508      0.641398846      12.0250122
117.92               0.642101664       11.873531      0.718992138     -75.7859408      0.718992138     -75.7859408      0.642100917      11.8736304
118.11               0.642801018      11.7219563      0.718286775     -75.9453956      0.718286774     -75.9453956      0.642800259      11.7220542
118.3                0.643497625      11.5701864      0.717581929     -76.1051168      0.717581929     -76.1051168      0.643496855      11.5702828
118.49               0.644191466      11.4182205      0.716877618     -76.2651061      0.716877618     -76.2651062      0.644190684      11.4183156
118.68               0.644882521       11.266058       0.71617386     -76.4253654       0.71617386     -76.4253654      0.644881728      11.2661517
118.87               0.645570771      11.1136981      0.715470671     -76.5858963      0.715470671     -76.5858963      0.645569968      11.1137905
119.06               0.646256197      10.9611399      0.714768069     -76.7467006      0.714768068     -76.7467006      0.646255383      10.9612311
119.25               0.646938779      10.8083829       0.71406607     -76.9077801       0.71406607     -76.9077801      0.646937955      10.8084728
119.44               0.647618497      10.6554261      0.713364694     -77.0691367      0.713364694     -77.0691367      0.647617662      10.6555148
119.63               0.648295331      10.5022689      0.712663957     -77.2307722      0.712663956     -77.2307722      0.648294487      10.5023564
119.82               0.648969261      10.3489103      0.711963876     -77.3926883      0.711963876     -77.3926883      0.648968407      10.3489968
120.01               0.649640266      10.1953498      0.711264471     -77.5548871       0.71126447     -77.5548871      0.649639402      10.1954351
120.2                0.650308326      10.0415864      0.710565758     -77.7173703      0.710565757     -77.7173703      0.650307452      10.0416707
120.39               0.650973419      9.88761943      0.709867755     -77.8801399      0.709867755     -77.8801399      0.650972537      9.88770271
120.58               0.651635525      9.73344805      0.709170482     -78.0431979      0.709170481     -78.0431979      0.651634634      9.73353035
120.77               0.652294622      9.57907148      0.708473955     -78.2065461      0.708473955     -78.2065461      0.652293723      9.57915282
120.96               0.652950689      9.42448892      0.707778194     -78.3701865      0.707778194     -78.3701865      0.652949782      9.42456934
121.15               0.653603705      9.26969958      0.707083216     -78.5341212      0.707083216     -78.5341212      0.653602789      9.26977911
121.34               0.654253646      9.11470263      0.706389041      -78.698352      0.706389041     -78.6983521      0.654252723       9.1147813
121.53               0.654900492      8.95949729      0.705695686     -78.8628812      0.705695686     -78.8628812      0.654899562      8.95957513
121.72                0.65554422      8.80408273      0.705003172     -79.0277106      0.705003171     -79.0277107      0.655543283      8.80415976
121.91               0.656184807      8.64845813      0.704311515     -79.1928425      0.704311515     -79.1928425      0.656183863      8.64853439
122.1                0.656822231      8.49262268      0.703620736     -79.3582788      0.703620735     -79.3582788      0.656821281       8.4926982
122.29               0.657456468      8.33657556      0.702930853     -79.5240217      0.702930853     -79.5240217      0.657455512      8.33665036
122.48               0.658087496      8.18031594      0.702241886     -79.6900733      0.702241885     -79.6900733      0.658086534      8.18039005
122.67                0.65871529      8.02384298      0.701553853     -79.8564359      0.701553853     -79.8564359      0.658714324      8.02391643
122.86               0.659339828      7.86715586      0.700866774     -80.0231114      0.700866774     -80.0231114      0.659338857      7.86722867
123.05               0.659961085      7.71025374      0.700180669     -80.1901023      0.700180669     -80.1901023       0.65996011      7.71032594
123.24               0.660579038      7.55313577      0.699495557     -80.3574107      0.699495557     -80.3574107      0.660578059      7.55320738
123.43               0.661193661      7.39580113      0.698811458     -80.5250388      0.698811457     -80.5250388      0.661192679      7.39587217
123.62               0.661804931      7.23824895      0.698128391     -80.6929889       0.69812839     -80.6929889      0.661803945      7.23831945
123.81               0.662412822      7.08047839      0.697446376     -80.8612633      0.697446376     -80.8612633      0.662411833      7.08054836
124                  0.663017309       6.9224886      0.696765434     -81.0298644      0.696765433     -81.0298644      0.663016318      6.92255807
124.19               0.663618367      6.76427873      0.696085584     -81.1987945      0.696085583     -81.1987945      0.663617374      6.76434771
124.38                0.66421597       6.6058479      0.695406846     -81.3680559      0.695406846     -81.3680559      0.664214976      6.60591642
124.57               0.664810093      6.44719527      0.694729241     -81.5376511      0.694729241     -81.5376511      0.664809098      6.44726334
124.76               0.665400709      6.28831997      0.694052789     -81.7075825      0.694052789     -81.7075825      0.665399713       6.2883876
124.95               0.665987792      6.12922113      0.693377511     -81.8778524      0.693377511     -81.8778524      0.665986796      6.12928835
125.14               0.666571314      5.96989788      0.692703427     -82.0484634      0.692703427     -82.0484634      0.666570319       5.9699647
125.33                0.66715125      5.81034936      0.692030558      -82.219418      0.692030558      -82.219418      0.667150255      5.81041579
125.52               0.667727572      5.65057468      0.691358924     -82.3907187      0.691358924     -82.3907187      0.667726578      5.65064073
125.71               0.668300253      5.49057297      0.690688547     -82.5623681      0.690688547     -82.5623681       0.66829926      5.49063866
125.9                0.668869264      5.33034334      0.690019447     -82.7343686      0.690019447     -82.7343686      0.668868273      5.33040868
126.09               0.669434577      5.16988493      0.689351646      -82.906723      0.689351646      -82.906723       0.66943359      5.16994993
126.28               0.669996165      5.00919684      0.688685165     -83.0794338      0.688685164     -83.0794338       0.66999518      5.00926151
126.47               0.670553999      4.84827819      0.688020024     -83.2525037      0.688020024     -83.2525037      0.670553017      4.84834253
126.66               0.671108049      4.68712809      0.687356246     -83.4259354      0.687356246     -83.4259354      0.671107071      4.68719211
126.85               0.671658287      4.52574565      0.686693852     -83.5997316      0.686693852     -83.5997316      0.671657313      4.52580936
127.04               0.672204682      4.36412998      0.686032863      -83.773895      0.686032863      -83.773895      0.672203713      4.36419338
127.23               0.672747206      4.20228018      0.685373302     -83.9484285      0.685373302     -83.9484285      0.672746242      4.20234328
127.42               0.673285827      4.04019536      0.684715189     -84.1233347      0.684715189     -84.1233347      0.673284869      4.04025817
127.61               0.673820516      3.87787463      0.684058548     -84.2986165      0.684058547     -84.2986165      0.673819564      3.87793714
127.8                0.674351242      3.71531708      0.683403399     -84.4742768      0.683403399     -84.4742768      0.674350297      3.71537929
127.99               0.674877973      3.55252182      0.682749765     -84.6503185      0.682749765     -84.6503185      0.674877035      3.55258373
128.18               0.675400678      3.38948795      0.682097668     -84.8267445      0.682097668     -84.8267444      0.675399747      3.38954956
128.37               0.675919326      3.22621456      0.681447131     -85.0035576      0.681447131     -85.0035576      0.675918403      3.22627587
128.56               0.676433884      3.06270076      0.680798176      -85.180761      0.680798175      -85.180761      0.676432969      3.06276177
128.75                0.67694432      2.89894563      0.680150824     -85.3583576      0.680150824     -85.3583576      0.676943414      2.89900633
128.94               0.677450601      2.73494828        0.6795051     -85.5363504        0.6795051     -85.5363504      0.677449704      2.73500867
129.13               0.677952694       2.5707078      0.678861025     -85.7147425      0.678861025     -85.7147425      0.677951807      2.57076788
129.32               0.678450566      2.40622329      0.678218623     -85.8935371      0.678218622     -85.8935371      0.678449688      2.40628304
129.51               0.678944183      2.24149385      0.677577916     -86.0727372      0.677577915     -86.0727372      0.678943315      2.24155326
129.7                 0.67943351      2.07651856      0.676938926     -86.2523461      0.676938926     -86.2523461      0.679432653      2.07657763
129.89               0.679918513      1.91129653      0.676301679     -86.4323668      0.676301678     -86.4323668      0.679917667      1.91135525
130.08               0.680399158      1.74582685      0.675666195     -86.6128028      0.675666195     -86.6128028      0.680398323       1.7458852
130.27               0.680875408      1.58010861      0.675032499     -86.7936571      0.675032499     -86.7936571      0.680874586      1.58016659
130.46               0.681347229      1.41414092      0.674400614     -86.9749332      0.674400614     -86.9749332      0.681346419      1.41419851
130.65               0.681814585      1.24792287      0.673770563     -87.1566344      0.673770563     -87.1566344      0.681813787      1.24798005
130.84               0.682277438      1.08145356      0.673142371      -87.338764       0.67314237      -87.338764      0.682276653      1.08151033
131.03               0.682735753     0.914732087      0.672516059     -87.5213255      0.672516059     -87.5213255      0.682734981     0.914788424
131.22               0.683189491      0.74775756      0.671891653     -87.7043222      0.671891653     -87.7043222      0.683188733     0.747813448
131.41               0.683638616     0.580529078      0.671269176     -87.8877578      0.671269176     -87.8877578      0.683637872     0.580584499
131.6                 0.68408309     0.413045746      0.670648652     -88.0716356      0.670648652     -88.0716356       0.68408236     0.413100683
131.79               0.684522874     0.245306673      0.670030104     -88.2559593      0.670030104     -88.2559593      0.684522159     0.245361106
131.98                0.68495793    0.0773109674      0.669413558     -88.4407324      0.669413557     -88.4407324      0.684957229    0.0773648766
132.17               0.685388217   -0.0909422588      0.668799036     -88.6259586      0.668799035     -88.6259586      0.685387532   -0.0908888938
132.36               0.685813698     -0.25945389      0.668186563     -88.8116415      0.668186563     -88.8116415      0.685813028    -0.259401091
132.55               0.686234331    -0.428224809      0.667576164     -88.9977849      0.667576163     -88.9977849      0.686233677    -0.428172598
132.74               0.686650076    -0.597255895      0.666967862     -89.1843924      0.666967862     -89.1843924      0.686649438    -0.597204294
132.93               0.687060893    -0.766548021      0.666361683     -89.3714679      0.666361682     -89.3714679      0.687060271    -0.766497055
133.12                0.68746674     -0.93610206       0.66575765     -89.5590152       0.66575765     -89.5590152      0.687466134    -0.936051753
133.31               0.687867575     -1.10591888      0.665155789     -89.7470382      0.665155788     -89.7470382      0.687866985     -1.10586926
133.5                0.688263356     -1.27599934      0.664556123     -89.9355407      0.664556123     -89.9355407      0.688262783     -1.27595043
133.69               0.688654041      -1.4463443      0.663958678     -90.1245267      0.663958678     -90.1245267      0.688653484     -1.44629612
133.88               0.689039585     -1.61695461      0.663363479     -90.3140002      0.663363478     -90.3140002      0.689039046      -1.6169072
134.07               0.689419947     -1.78783113      0.662770549     -90.5039652      0.662770549     -90.5039652      0.689419424      -1.7877845
134.26               0.689795081     -1.95897469      0.662179915     -90.6944258      0.662179915     -90.6944257      0.689794575     -1.95892888
134.45               0.690164943     -2.13038612      0.661591601      -90.885386      0.661591601      -90.885386      0.690164455     -2.13034116
134.64               0.690529488     -2.30206626      0.661005633     -91.0768501      0.661005633     -91.0768501      0.690529017     -2.30202217
134.83               0.690888671     -2.47401593      0.660422035     -91.2688223      0.660422034     -91.2688223      0.690888217     -2.47397274
135.02               0.691242446     -2.64623595      0.659840832     -91.4613067      0.659840832     -91.4613067      0.691242009     -2.64619369
135.21               0.691590765     -2.81872712       0.65926205     -91.6543078       0.65926205     -91.6543077      0.691590346     -2.81868582
135.4                0.691933583     -2.99149024      0.658685714     -91.8478297      0.658685714     -91.8478297      0.691933181     -2.99144994
135.59               0.692270851      -3.1645261      0.658111849     -92.0418769      0.658111849     -92.0418769      0.692270467     -3.16448682
135.78               0.692602523     -3.33783549      0.657540481     -92.2364538      0.657540481     -92.2364538      0.692602156     -3.33779727
135.97               0.692928548     -3.51141918      0.656971635     -92.4315649      0.656971635     -92.4315649      0.692928198     -3.51138204
136.16               0.693248878     -3.68527794      0.656405337     -92.6272146      0.656405337     -92.6272146      0.693248546     -3.68524191
136.35               0.693563465     -3.85941251      0.655841611     -92.8234076      0.655841611     -92.8234076      0.693563149     -3.85937763
136.54               0.693872256     -4.03382364      0.655280485     -93.0201485      0.655280484     -93.0201485      0.693871958     -4.03378994
136.73               0.694175203     -4.20851206      0.654721982     -93.2174419      0.654721982     -93.2174419      0.694174921     -4.20847957
136.92               0.694472253      -4.3834785      0.654166129     -93.4152925      0.654166128     -93.4152925      0.694471987     -4.38344724
137.11               0.694763355     -4.55872366      0.653612951      -93.613705      0.653612951      -93.613705      0.694763106     -4.55869367
137.3                0.695048456     -4.73424823      0.653062474     -93.8126844      0.653062474     -93.8126844      0.695048224     -4.73421954
137.49               0.695327504      -4.9100529      0.652514723     -94.0122354      0.652514723     -94.0122353      0.695327288     -4.91002554
137.68               0.695600446     -5.08613834      0.651969725     -94.2123629      0.651969725     -94.2123628      0.695600245     -5.08611234
137.87               0.695867227      -5.2625052      0.651427505     -94.4130718      0.651427505     -94.4130718      0.695867042     -5.26248059
138.06               0.696127793     -5.43915411      0.650888088     -94.6143673      0.650888088     -94.6143673      0.696127623     -5.43913093
138.25               0.696382089     -5.61608572        0.6503515     -94.8162544        0.6503515     -94.8162543      0.696381933     -5.61606398
138.44               0.696630058     -5.79330061      0.649817768      -95.018738      0.649817768      -95.018738      0.696629917     -5.79328034
138.63               0.696871645     -5.97079938      0.649286916     -95.2218235      0.649286915     -95.2218235      0.696871518     -5.97078062
138.82               0.697106792      -6.1485826       0.64875897     -95.4255161       0.64875897     -95.4255161      0.697106679     -6.14856538
139.01               0.697335443     -6.32665083      0.648233956     -95.6298209      0.648233956     -95.6298209      0.697335343     -6.32663517
139.2                0.697557538      -6.5050046      0.647711899     -95.8347434      0.647711899     -95.8347434      0.697557451     -6.50499053
139.39               0.697773019     -6.68364443      0.647192826     -96.0402888      0.647192826     -96.0402888      0.697772944     -6.68363197
139.58               0.697981827     -6.86257081      0.646676761     -96.2464627      0.646676761     -96.2464627      0.697981764     -6.86255999
139.77               0.698183901     -7.04178422      0.646163731     -96.4532705      0.646163731     -96.4532705      0.698183849     -7.04177506
139.96               0.698379181     -7.22128511       0.64565376     -96.6607178       0.64565376     -96.6607178       0.69837914     -7.22127763
140.15               0.698567606     -7.40107389      0.645146875     -96.8688101      0.645146875     -96.8688101      0.698567575     -7.40106813
140.34               0.698749113     -7.58115099        0.6446431     -97.0775531        0.6446431     -97.0775531      0.698749092     -7.58114696
140.53                0.69892364     -7.76151678      0.644142461     -97.2869526      0.644142461     -97.2869526      0.698923628     -7.76151449
140.72               0.699091123     -7.94217161      0.643644983     -97.4970142      0.643644983     -97.4970142      0.699091119     -7.94217109
140.91               0.699251499     -8.12311581      0.643150691     -97.7077439      0.643150691     -97.7077439      0.699251503     -8.12311708
141.1                0.699404703     -8.30434968      0.642659611     -97.9191475      0.642659611     -97.9191475      0.699404714     -8.30435275
141.29                0.69955067     -8.48587349      0.642171767     -98.1312309      0.642171767     -98.1312309      0.699550687     -8.48587838
141.48               0.699689333     -8.66768749      0.641687185     -98.3440002      0.641687185     -98.3440002      0.699689356      -8.6676942
141.67               0.699820626     -8.84979187      0.641205889     -98.5574615      0.641205889     -98.5574615      0.699820653     -8.84980043
141.86               0.699944481     -9.03218683      0.640727905     -98.7716208      0.640727905     -98.7716208      0.699944513     -9.03219724
142.05               0.700060831     -9.21487251      0.640253255     -98.9864843      0.640253255     -98.9864843      0.700060866     -9.21488478
142.24               0.700169607     -9.39784902      0.639781966     -99.2020583      0.639781966     -99.2020583      0.700169644     -9.39786316
142.43               0.700270738     -9.58111644      0.639314062     -99.4183491      0.639314062     -99.4183491      0.700270777     -9.58113245
142.62               0.700364156      -9.7646748      0.638849566      -99.635363      0.638849566     -99.6353631      0.700364195     -9.76469269
142.81               0.700449788     -9.94852412      0.638388503     -99.8531066      0.638388503     -99.8531066      0.700449828     -9.94854389
143                  0.700527564     -10.1326643      0.637930897     -100.071586      0.637930897     -100.071586      0.700527602      -10.132686
143.19                0.70059741     -10.3170954      0.637476772     -100.290809      0.637476772     -100.290809      0.700597447     -10.3171189
143.38               0.700659255     -10.5018172       0.63702615      -100.51078       0.63702615      -100.51078      0.700659288     -10.5018426
143.57               0.700713023     -10.6868295      0.636579056     -100.731508      0.636579056     -100.731508      0.700713052     -10.6868568
143.76                0.70075864     -10.8721322      0.636135513     -100.952998      0.636135513     -100.952998      0.700758665     -10.8721614
143.95               0.700796032      -11.057725      0.635695544     -101.175258      0.635695544     -101.175258      0.700796051      -11.057756
144.14               0.700825121     -11.2436076      0.635259171     -101.398294      0.635259171     -101.398294      0.700825133     -11.2436405
144.33               0.700845831     -11.4297797      0.634826417     -101.622114      0.634826417     -101.622114      0.700845835     -11.4298143
144.52               0.700858085     -11.6162408      0.634397304     -101.846724      0.634397304     -101.846724       0.70085808     -11.6162772
144.71               0.700861804     -11.8029905      0.633971855     -102.072131      0.633971855     -102.072131      0.700861788     -11.8030287
144.9                0.700856908     -11.9900283      0.633550091     -102.298343      0.633550092     -102.298343      0.700856882     -11.9900683
145.09               0.700843318     -12.1773537      0.633132035     -102.525367      0.633132035     -102.525367       0.70084328     -12.1773954
145.28               0.700820954     -12.3649659      0.632717706      -102.75321      0.632717706      -102.75321      0.700820902     -12.3650093
145.47               0.700789733     -12.5528644      0.632307126     -102.981879      0.632307126     -102.981879      0.700789667     -12.5529095
145.66               0.700749574     -12.7410484      0.631900316     -103.211382      0.631900316     -103.211382      0.700749492     -12.7410951
145.85               0.700700394     -12.9295171      0.631497296     -103.441727      0.631497296     -103.441727      0.700700295     -12.9295654
146.04               0.700642108     -13.1182696      0.631098085      -103.67292      0.631098086      -103.67292      0.700641991     -13.1183194
146.23               0.700574633      -13.307305      0.630702705      -103.90497      0.630702705      -103.90497      0.700574497     -13.3073563
146.42               0.700497882     -13.4966222      0.630311173     -104.137884      0.630311174     -104.137884      0.700497726     -13.4966751
146.61                0.70041177     -13.6862203       0.62992351     -104.371669       0.62992351      -104.37167      0.700411593     -13.6862746
146.8                 0.70031621      -13.876098      0.629539732     -104.606335      0.629539732     -104.606335      0.700316011     -13.8761536
146.99               0.700211115     -14.0662542      0.629159859     -104.841888      0.629159859     -104.841888      0.700210891     -14.0663111
147.18               0.700096395     -14.2566874      0.628783908     -105.078337      0.628783908     -105.078337      0.700096146     -14.2567456
147.37               0.699971961     -14.4473964      0.628411896     -105.315689      0.628411896     -105.315689      0.699971687     -14.4474557
147.56               0.699837724     -14.6383796       0.62804384     -105.553953       0.62804384     -105.553953      0.699837422     -14.6384401
147.75               0.699693593     -14.8296355      0.627679756     -105.793137      0.627679756     -105.793137      0.699693263      -14.829697
147.94               0.699539476     -15.0211624       0.62731966     -106.033249       0.62731966     -106.033249      0.699539116     -15.0212249
148.13                0.69937528     -15.2129587      0.626963567     -106.274297      0.626963567     -106.274297      0.699374889     -15.2130221
148.32               0.699200913     -15.4050224      0.626611493      -106.51629      0.626611493      -106.51629      0.699200491     -15.4050866
148.51               0.699016281     -15.5973517       0.62626345     -106.759237       0.62626345     -106.759237      0.699015826     -15.5974166
148.7                 0.69882129     -15.7899444      0.625919453     -107.003144      0.625919454     -107.003144      0.698820799       -15.79001
148.89               0.698615842     -15.9827986      0.625579515     -107.248022      0.625579516     -107.248023      0.698615317     -15.9828647
149.08               0.698399844     -16.1759118      0.625243649     -107.493879      0.625243649     -107.493879      0.698399282     -16.1759784
149.27               0.698173197     -16.3692818      0.624911865     -107.740724      0.624911865     -107.740724      0.698172598     -16.3693488
149.46               0.697935805     -16.5629062      0.624584175     -107.988565      0.624584175     -107.988565      0.697935167     -16.5629733
149.65               0.697687569     -16.7567822       0.62426059      -108.23741       0.62426059     -108.237411       0.69768689     -16.7568495
149.84               0.697428389     -16.9509073      0.623941118      -108.48727      0.623941119      -108.48727       0.69742767     -16.9509746
150.03               0.697158166     -17.1452786      0.623625771     -108.738153      0.623625771     -108.738153      0.697157405     -17.1453458
150.22                 0.6968768     -17.3398931      0.623314555     -108.990068      0.623314555     -108.990068      0.696875996     -17.3399602
150.41               0.696584189     -17.5347478      0.623007478     -109.243025      0.623007478     -109.243025      0.696583341     -17.5348145
150.6                0.696280232     -17.7298395      0.622704546     -109.497031      0.622704547     -109.497031      0.696279339     -17.7299057
150.79               0.695964826     -17.9251647      0.622405767     -109.752097      0.622405767     -109.752097      0.695963888     -17.9252304
150.98               0.695637869     -18.1207201      0.622111145     -110.008232      0.622111145     -110.008232      0.695636883      -18.120785
151.17               0.695299255     -18.3165019      0.621820683     -110.265444      0.621820683     -110.265445      0.695298222     -18.3165659
151.36               0.694948882     -18.5125063      0.621534386     -110.523745      0.621534387     -110.523745        0.6949478     -18.5125694
151.55               0.694586643     -18.7087295      0.621252256     -110.783142      0.621252257     -110.783142      0.694585512     -18.7087914
151.74               0.694212434     -18.9051673      0.620974295     -111.043646      0.620974295     -111.043646      0.694211253     -18.9052278
151.93               0.693826148     -19.1018153      0.620700502     -111.305266      0.620700502     -111.305266      0.693824916     -19.1018745
152.12               0.693427678     -19.2986693      0.620430878     -111.568011      0.620430878     -111.568012      0.693426395     -19.2987268
152.31               0.693016919     -19.4957245      0.620165421     -111.831892      0.620165421     -111.831893      0.693015583     -19.4957802
152.5                 0.69259376     -19.6929762      0.619904128     -112.096919      0.619904128     -112.096919      0.692592372       -19.69303
152.69               0.692158096     -19.8904194      0.619646996       -112.3631      0.619646996       -112.3631      0.692156654      -19.890471
152.88               0.691709816     -20.0880489       0.61939402     -112.630445       0.61939402     -112.630445      0.691708321     -20.0880982
153.07               0.691248813     -20.2858593      0.619145194     -112.898966      0.619145194     -112.898966      0.691247263     -20.2859062
153.26               0.690774976     -20.4838452      0.618900511     -113.168671      0.618900511     -113.168671      0.690773371     -20.4838894
153.45               0.690288196     -20.6820006      0.618659963      -113.43957      0.618659963     -113.439571      0.690286536      -20.682042
153.64               0.689788362     -20.8803198       0.61842354     -113.711675       0.61842354     -113.711675      0.689786647     -20.8803581
153.83               0.689275365     -21.0787963      0.618191232     -113.984994      0.618191232     -113.984994      0.689273594     -21.0788315
154.02               0.688749094      -21.277424      0.617963026     -114.259537      0.617963026     -114.259537      0.688747267     -21.2774557
154.21               0.688209437      -21.476196      0.617738909     -114.535316       0.61773891     -114.535316      0.688207555     -21.4762241
154.4                0.687656284     -21.6751055      0.617518867      -114.81234      0.617518867      -114.81234      0.687654346     -21.6751298
154.59               0.687089524     -21.8741455      0.617302883     -115.090619      0.617302883     -115.090619       0.68708753     -21.8741658
154.78               0.686509044     -22.0733085      0.617090939     -115.370164      0.617090939     -115.370164      0.686506995     -22.0733245
154.97               0.685914735     -22.2725869      0.616883017     -115.650984      0.616883017     -115.650984       0.68591263     -22.2725985
155.16               0.685306484     -22.4719728      0.616679096     -115.933091      0.616679096     -115.933091      0.685304324     -22.4719798
155.35               0.684684181     -22.6714581      0.616479153     -116.216494      0.616479153     -116.216494      0.684681965     -22.6714603
155.54               0.684047713     -22.8710344      0.616283166     -116.501205      0.616283166     -116.501205      0.684045443     -22.8710315
155.73                0.68339697      -23.070693      0.616091109     -116.787232      0.616091109     -116.787232      0.683394646     -23.0706847
155.92               0.682731841     -23.2704248      0.615902954     -117.074587      0.615902954     -117.074587      0.682729464      -23.270411
156.11               0.682052216     -23.4702206      0.615718674      -117.36328      0.615718674      -117.36328      0.682049786     -23.4702011
156.3                0.681357983     -23.6700707      0.615538238     -117.653322      0.615538238     -117.653322      0.681355501     -23.6700453
156.49               0.680649034     -23.8699654      0.615361614     -117.944723      0.615361614     -117.944723        0.6806465     -23.8699337
156.68               0.679925258     -24.0698943      0.615188767     -118.237492      0.615188768     -118.237493      0.679922674     -24.0698562
156.87               0.679186546     -24.2698468      0.615019664     -118.531642      0.615019664     -118.531642      0.679183913     -24.2698022
157.06               0.678432791     -24.4698122      0.614854265     -118.827182      0.614854265     -118.827182       0.67843011     -24.4697607
157.25               0.677663884     -24.6697792      0.614692531     -119.124122      0.614692531     -119.124122      0.677661156     -24.6697205
157.44               0.676879719     -24.8697361      0.614534421     -119.422473      0.614534421     -119.422473      0.676876945     -24.8696702
157.63               0.676080189     -25.0696711      0.614379892     -119.722245      0.614379892     -119.722246      0.676077371     -25.0695976
157.82               0.675265189     -25.2695717      0.614228897      -120.02345      0.614228897      -120.02345      0.675262328     -25.2694905
158.01               0.674434615     -25.4694254      0.614081391     -120.326096      0.614081391     -120.326096      0.674431713     -25.4693361
158.2                0.673588364      -25.669219      0.613937322     -120.630194      0.613937322     -120.630194      0.673585422     -25.6691215
158.39               0.672726333      -25.868939       0.61379664     -120.935755       0.61379664     -120.935755      0.672723353     -25.8688331
158.58               0.671848422     -26.0685716      0.613659291     -121.242788      0.613659291     -121.242788      0.671845406      -26.068457
158.77               0.670954531     -26.2681024      0.613525218     -121.551305      0.613525218     -121.551305      0.670951482     -26.2679789
158.96               0.670044563     -26.4675167      0.613394363     -121.861314      0.613394363     -121.861314      0.670041481     -26.4673841
159.15                0.66911842     -26.6667993      0.613266666     -122.172827      0.613266666     -122.172827       0.66911531     -26.6666574
159.34                0.66817601     -26.8659346      0.613142064     -122.485853      0.613142064     -122.485853      0.668172872     -26.8657832
159.53               0.667217237     -27.0649066      0.613020492     -122.800402      0.613020492     -122.800402      0.667214074     -27.0647454
159.72               0.666242013     -27.2636986      0.612901881     -123.116483      0.612901881     -123.116483      0.666238827     -27.2635274
159.91               0.665250246     -27.4622937      0.612786163     -123.434108      0.612786163     -123.434108      0.665247041     -27.4621124
160.1                0.664241852     -27.6606743      0.612673265     -123.753284      0.612673265     -123.753284       0.66423863     -27.6604827
160.29               0.663216746     -27.8588225      0.612563111     -124.074023      0.612563111     -124.074023      0.663213509     -27.8586203
160.48               0.662174844     -28.0567197      0.612455625     -124.396333      0.612455625     -124.396333      0.662171597     -28.0565068
160.67               0.661116069      -28.254347      0.612350726     -124.720224      0.612350726     -124.720224      0.661112813     -28.2541231
160.86               0.660040343     -28.4516846      0.612248332     -125.045706      0.612248332     -125.045706      0.660037081     -28.4514497
161.05               0.658947592     -28.6487126      0.612148358     -125.372786      0.612148358     -125.372786      0.658944328     -28.6484665
161.24               0.657837745     -28.8454103      0.612050716     -125.701475      0.612050716     -125.701475      0.657834483     -28.8451528
161.43               0.656710735     -29.0417565      0.611955316     -126.031781      0.611955316     -126.031781      0.656707477     -29.0414874
161.62               0.655566497     -29.2377294      0.611862064     -126.363713      0.611862064     -126.363714      0.655563247     -29.2374486
161.81                0.65440497     -29.4333065      0.611770866      -126.69728      0.611770866      -126.69728      0.654401732     -29.4330139
162                  0.653226097      -29.628465      0.611681621      -127.03249      0.611681621      -127.03249      0.653222874     -29.6281604
162.19               0.652029824     -29.8231813       0.61159423     -127.369352       0.61159423     -127.369352      0.652026621     -29.8228646
162.38               0.650816102     -30.0174311      0.611508588     -127.707873      0.611508588     -127.707873      0.650812922     -30.0171023
162.57               0.649584885     -30.2111897      0.611424589     -128.048061      0.611424589     -128.048061      0.649581732     -30.2108486
162.76               0.648336133     -30.4044315      0.611342122     -128.389924      0.611342122     -128.389924       0.64833301     -30.4040781
162.95               0.647069809     -30.5971306      0.611261076      -128.73347      0.611261076      -128.73347      0.647066721     -30.5967647
163.14               0.645785881       -30.78926      0.611181335     -129.078706      0.611181335     -129.078706      0.645782832     -30.7888816
163.33               0.644484323     -30.9807924      0.611102782     -129.425639      0.611102782      -129.42564      0.644481317     -30.9804015
163.52               0.643165113     -31.1716996      0.611025295     -129.774277      0.611025295     -129.774277      0.643162154     -31.1712962
163.71               0.641828234     -31.3619529      0.610948752     -130.124624      0.610948752     -130.124624      0.641825326     -31.3615368
163.9                0.640473677     -31.5515226      0.610873025     -130.476689      0.610873025     -130.476689      0.640470825      -31.551094
164.09               0.639101436     -31.7403786      0.610797985     -130.830477      0.610797985     -130.830477      0.639098643     -31.7399375
164.28               0.637711512       -31.92849        0.6107235     -131.185994        0.6107235     -131.185994      0.637708784     -31.9280362
164.47               0.636303912     -32.1158249      0.610649435     -131.543245      0.610649435     -131.543246      0.636301253     -32.1153587
164.66               0.634878651     -32.3023511      0.610575653     -131.902237      0.610575653     -131.902237      0.634876065     -32.3018724
164.85               0.633435749     -32.4880353      0.610502013     -132.262973      0.610502013     -132.262973       0.63343324     -32.4875443
165.04               0.631975233     -32.6728435      0.610428371     -132.625459      0.610428371     -132.625459      0.631972806     -32.6723403
165.23               0.630497138     -32.8567412      0.610354582     -132.989699      0.610354582     -132.989699      0.630494797     -32.8562258
165.42               0.629001505     -33.0396928      0.610280497     -133.355696      0.610280497     -133.355696      0.628999255     -33.0391654
165.61               0.627488385     -33.2216621      0.610205964     -133.723456      0.610205964     -133.723456       0.62748623     -33.2211228
165.8                0.625957835     -33.4026121      0.610130829      -134.09298      0.610130829      -134.09298      0.625955779     -33.4020611
165.99                0.62440992     -33.5825048      0.610054935     -134.464273      0.610054935     -134.464273      0.624407967     -33.5819423
166.18               0.622844714     -33.7613018      0.609978123     -134.837336      0.609978123     -134.837336       0.62284287      -33.760728
166.37               0.621262301     -33.9389635      0.609900232     -135.212172      0.609900232     -135.212172      0.621260568     -33.9383786
166.56               0.619662772     -34.1154497      0.609821096     -135.588782      0.609821096     -135.588783      0.619661155     -34.1148541
166.75               0.618046227     -34.2907194      0.609740548     -135.967169      0.609740548     -135.967169       0.61804473     -34.2901133
166.94               0.616412778     -34.4647308      0.609658421     -136.347333      0.609658421     -136.347333      0.616411405     -34.4641144
167.13               0.614762543     -34.6374411      0.609574541     -136.729275      0.609574541     -136.729275      0.614761298     -34.6368148
167.32               0.613095654     -34.8088069      0.609488735     -137.112995      0.609488735     -137.112995       0.61309454      -34.808171
167.51                0.61141225     -34.9787839      0.609400827     -137.498492      0.609400827     -137.498492      0.611411272     -34.9781388
167.7                0.609712482      -35.147327      0.609310639     -137.885766      0.609310639     -137.885766      0.609711642     -35.1466731
167.89               0.607996511     -35.3143903      0.609217991     -138.274815      0.609217991     -138.274815      0.607995814      -35.313728
168.08               0.606264511     -35.4799271        0.6091227     -138.665638        0.6091227     -138.665638      0.606263959     -35.4792569
168.27               0.604516665     -35.6438898      0.609024583     -139.058233      0.609024583     -139.058233      0.604516261     -35.6432121
168.46               0.602753169     -35.8062302      0.608923453     -139.452597      0.608923453     -139.452597      0.602752916     -35.8055455
168.65                0.60097423     -35.9668992      0.608819124     -139.848727      0.608819124     -139.848727       0.60097413      -35.966208
168.84               0.599180067     -36.1258469      0.608711406     -140.246618      0.608711407     -140.246618      0.599180123     -36.1251497
169.03               0.597370913     -36.2830227       0.60860011     -140.646267       0.60860011     -140.646268      0.597371127     -36.2823201
169.22               0.595547011     -36.4383753      0.608485042     -141.047669      0.608485043     -141.047669      0.595547385     -36.4376679
169.41               0.593708619     -36.5918526      0.608366012     -141.450819      0.608366012     -141.450819      0.593709156     -36.5911409
169.6                0.591856008     -36.7434016      0.608242823     -141.855709      0.608242823     -141.855709      0.591856708     -36.7426863
169.79               0.589989461     -36.8929691      0.608115282     -142.262335      0.608115282     -142.262335      0.589990325     -36.8922508
169.98               0.588109275     -37.0405006      0.607983192     -142.670689      0.607983192     -142.670689      0.588110305       -37.03978
170.17               0.586215762     -37.1859415      0.607846358     -143.080762      0.607846358     -143.080762      0.586216958     -37.1852193
170.36               0.584309246     -37.3292362      0.607704582     -143.492547      0.607704582     -143.492547       0.58431061     -37.3285131
170.55               0.582390068     -37.4703287      0.607557667     -143.906036      0.607557667     -143.906036      0.582391598     -37.4696054
170.74                0.58045858     -37.6091623      0.607405416     -144.321217      0.607405416     -144.321217      0.580460277     -37.6084396
170.93               0.578515152     -37.7456799       0.60724763     -144.738082       0.60724763     -144.738082      0.578517014     -37.7449585
171.12               0.576560166     -37.8798238      0.607084113     -145.156619      0.607084113     -145.156619      0.576562193     -37.8791045
171.31                0.57459402     -38.0115358      0.606914668     -145.576817      0.606914668     -145.576817      0.574596211     -38.0108194
171.5                0.572617128     -38.1407574      0.606739097     -145.998664      0.606739097     -145.998664      0.572619481     -38.1400448
171.69               0.570629918     -38.2674296      0.606557205     -146.422147      0.606557206     -146.422147      0.570632431     -38.2667216
171.88               0.568632834     -38.3914933      0.606368797     -146.847253      0.606368798     -146.847253      0.568635505     -38.3907906
172.07               0.566626335     -38.5128887      0.606173679     -147.273968      0.606173679     -147.273968      0.566629161     -38.5121922
172.26               0.564610897     -38.6315561      0.605971657     -147.702277      0.605971657     -147.702277      0.564613874     -38.6308667
172.45               0.562587009     -38.7474356       0.60576254     -148.132165       0.60576254     -148.132165      0.562590134     -38.7467542
172.64               0.560555178     -38.8604671      0.605546139     -148.563616      0.605546139     -148.563616      0.560558447     -38.8597945
172.83               0.558515926     -38.9705904      0.605322264     -148.996613      0.605322265     -148.996613      0.558519335     -38.9699275
173.02                0.55646979     -39.0777454      0.605090731     -149.431138      0.605090732     -149.431138      0.556473335     -39.0770931
173.21               0.554417325     -39.1818722      0.604851355     -149.867175      0.604851356     -149.867175      0.554420999     -39.1812314
173.4                0.552359098     -39.2829108      0.604603956     -150.304703      0.604603956     -150.304703      0.552362897     -39.2822823
173.59               0.550295695     -39.3808016      0.604348353     -150.743704      0.604348354     -150.743704      0.550299612     -39.3801863
173.78               0.548227717     -39.4754854      0.604084372     -151.184157      0.604084372     -151.184157      0.548231746     -39.4748841
173.97               0.546155779     -39.5669031       0.60381184     -151.626042       0.60381184     -151.626042      0.546159913     -39.5663168
174.16               0.544080512     -39.6549964      0.603530586     -152.069337      0.603530586     -152.069337      0.544084744     -39.6544259
174.35               0.542002563     -39.7397075      0.603240446     -152.514021      0.603240446     -152.514021      0.542006884     -39.7391535
174.54               0.539922592     -39.8209792      0.602941256      -152.96007      0.602941257      -152.96007      0.539926996     -39.8204426
174.73               0.537841277     -39.8987551      0.602632859     -153.407462      0.602632859     -153.407462      0.537845755     -39.8982367
174.92               0.535759307     -39.9729798        0.6023151     -153.856172      0.602315101     -153.856172       0.53576385     -39.9724803
175.11               0.533677388     -40.0435987       0.60198783     -154.306175       0.60198783     -154.306175      0.533681986     -40.0431189
175.3                0.531596238     -40.1105585      0.601650902     -154.757446      0.601650903     -154.757446      0.531600882     -40.1100991
175.49                0.52951659      -40.173807      0.601304177     -155.209959      0.601304178     -155.209959       0.52952127     -40.1733686
175.68               0.527439188     -40.2332933       0.60094752     -155.663688       0.60094752     -155.663688      0.527443895     -40.2328766
175.87               0.525364792     -40.2889681      0.600580799     -156.118604      0.600580799     -156.118604      0.525369514     -40.2885737
176.06               0.523294172     -40.3407836      0.600203889     -156.574682       0.60020389     -156.574682      0.523298898      -40.340412
176.25               0.521228109     -40.3886937      0.599816673     -157.031891      0.599816673     -157.031891      0.521232829     -40.3883454
176.44               0.519167399      -40.432654      0.599419035     -157.490203      0.599419035     -157.490203        0.5191721     -40.4323295
176.63               0.517112844     -40.4726224      0.599010868     -157.949589      0.599010868     -157.949589      0.517117516     -40.4723221
176.82                0.51506526     -40.5085586      0.598592071     -158.410018      0.598592071     -158.410018       0.51506989     -40.5082828
177.01                0.51302547     -40.5404247      0.598162548     -158.871459      0.598162549     -158.871459      0.513030046     -40.5401737
177.2                0.510994306     -40.5681851      0.597722212     -159.333882      0.597722212     -159.333882      0.510998816     -40.5679591
177.39               0.508972611     -40.5918068      0.597270979     -159.797254      0.597270979     -159.797254      0.508977042      -40.591606
177.58               0.506961231     -40.6112593      0.596808775     -160.261543      0.596808775     -160.261543      0.506965571     -40.6110838
177.77                0.50496102     -40.6265151      0.596335531     -160.726717      0.596335531     -160.726717      0.504965257     -40.6263649
177.96                0.50297284     -40.6375495      0.595851186     -161.192742      0.595851186     -161.192742       0.50297696     -40.6374245
178.15               0.500997555      -40.644341      0.595355686     -161.659585      0.595355687     -161.659585      0.501001545     -40.6442411
178.34               0.499036033     -40.6468712      0.594848985     -162.127211      0.594848986     -162.127211      0.499039882     -40.6467962
178.53               0.497089147     -40.6451251      0.594331044     -162.595586      0.594331044     -162.595586      0.497092841     -40.6450747
178.72               0.495157769     -40.6390912       0.59380183     -163.064676      0.593801831     -163.064676      0.495161296      -40.639065
178.91               0.493242775     -40.6287617      0.593261321     -163.534444      0.593261321     -163.534444      0.493246122     -40.6287592
179.1                0.491345039     -40.6141325        0.5927095     -164.004855        0.5927095     -164.004855      0.491348194     -40.6141531
179.29               0.489465434     -40.5952034      0.592146358     -164.475873      0.592146358     -164.475873      0.489468385     -40.5952464
179.48               0.487604832     -40.5719781      0.591571896     -164.947463      0.591571896     -164.947463      0.487607567     -40.5720428
179.67               0.485764099     -40.5444646      0.590986121     -165.419586      0.590986121     -165.419586      0.485766606     -40.5445503
179.86               0.483944098     -40.5126751      0.590389048     -165.892208      0.590389049     -165.892208      0.483946367     -40.5127808
180.05               0.482145688     -40.4766262      0.589780702     -166.365289      0.589780703     -166.365289      0.482147706     -40.4767508
180.24               0.480369717     -40.4363389      0.589161115     -166.838794      0.589161115     -166.838794      0.480371475     -40.4364812
180.43               0.478617029     -40.3918386      0.588530325     -167.312684      0.588530325     -167.312684      0.478618516     -40.3919976
180.62               0.476888455     -40.3431556       0.58788838     -167.786922      0.587888381     -167.786922      0.476889662     -40.3433298
180.81               0.475184817     -40.2903247      0.587235338      -168.26147      0.587235338      -168.26147      0.475185735     -40.2905128
181                  0.473506926     -40.2333856      0.586571261     -168.736291      0.586571262     -168.736291      0.473507546     -40.2335861
181.19               0.471855578     -40.1723827      0.585896223     -169.211345      0.585896223     -169.211345      0.471855892     -40.1725941
181.38               0.470231556     -40.1073654      0.585210302     -169.686596      0.585210302     -169.686596      0.470231556      -40.107586
181.57               0.468635626      -40.038388      0.584513587     -170.162005      0.584513587     -170.162005      0.468635307     -40.0386159
181.76               0.467068538     -39.9655095      0.583806173     -170.637533      0.583806173     -170.637533      0.467067892      -39.965743
181.95               0.465531024      -39.888794      0.583088165     -171.113143      0.583088165     -171.113143      0.465530047     -39.8890313
182.14               0.464023795     -39.8083107      0.582359672     -171.588796      0.582359673     -171.588796      0.464022481     -39.8085496
182.33               0.462547542     -39.7241333      0.581620815     -172.064454      0.581620816     -172.064454      0.462545889     -39.7243719
182.52               0.461102935     -39.6363407       0.58087172      -172.54008       0.58087172      -172.54008       0.46110094     -39.6365768
182.71               0.459690621     -39.5450164      0.580112519     -173.015635      0.580112519     -173.015635      0.459688281     -39.5452479
182.9                0.458311222     -39.4502489      0.579343354     -173.491082      0.579343355     -173.491082      0.458308536     -39.4504735
183.09               0.456965334     -39.3521311      0.578564374     -173.966383      0.578564374     -173.966383      0.456962303     -39.3523467
183.28               0.455653529     -39.2507606      0.577775731       -174.4415      0.577775731       -174.4415      0.455650151     -39.2509648
183.47               0.454376348     -39.1462397      0.576977589     -174.916396      0.576977589     -174.916396      0.454372627     -39.1464302
183.66               0.453134308     -39.0386747      0.576170116     -175.391034      0.576170116     -175.391034      0.453130246     -39.0388491
183.85               0.451927893     -38.9281764      0.575353485     -175.865378      0.575353485     -175.865378      0.451923493     -38.9283323
184.04                0.45075756     -38.8148594      0.574527879     -176.339391      0.574527879     -176.339391      0.450752826     -38.8149946
184.23               0.449623731     -38.6988426      0.573693484     -176.813036      0.573693483     -176.813036      0.449618669     -38.6989545
184.42                 0.4485268     -38.5802482      0.572850492     -177.286278      0.572850492     -177.286278      0.448521417     -38.5803345
184.61               0.447467127     -38.4592021      0.571999102      -177.75908      0.571999102      -177.75908      0.447461429     -38.4592605
184.8                0.446445038     -38.3358337      0.571139518     -178.231409      0.571139518     -178.231409      0.446439034     -38.3358618
184.99               0.445460828     -38.2102753       0.57027195     -178.703228       0.57027195     -178.703228      0.445454526     -38.2102707
185.18               0.444514754     -38.0826621       0.56939661     -179.174503       0.56939661     -179.174503      0.444508166     -38.0826226
185.37               0.443607042     -37.9531319      0.568513718     -179.645201      0.568513718     -179.645201      0.443600178     -37.9530553
185.56               0.442737881     -37.8218251      0.567623497      179.884712      0.567623497      179.884712      0.442730753     -37.8217092
185.75               0.441907426      -37.688884      0.566726175      179.415271      0.566726175      179.415271      0.441900047     -37.6887267
185.94               0.441115796     -37.5544528      0.565821983      178.946506      0.565821983      178.946506       0.44110818     -37.5542521
186.13               0.440363074     -37.4186774      0.564911157      178.478451      0.564911157      178.478451      0.440355235     -37.4184314
186.32               0.439649309      -37.281705      0.563993936      178.011138      0.563993935      178.011138      0.439641263     -37.2814117
186.51               0.438974513     -37.1436836      0.563070561      177.544598      0.563070561      177.544598      0.438966276     -37.1433414
186.7                0.438338665     -37.0047623      0.562141279      177.078861      0.562141279      177.078861      0.438330253     -37.0043695
186.89               0.437741706     -36.8650904      0.561206337      176.613957      0.561206337      176.613957      0.437733137     -36.8646455
187.08               0.437183545     -36.7248174      0.560265987      176.149917      0.560265986      176.149917      0.437174837     -36.7243189
187.27               0.436664054     -36.5840929       0.55932048       175.68677       0.55932048       175.68677      0.436655226     -36.5835395
187.46               0.436183073     -36.4430657      0.558370073      175.224543      0.558370072      175.224543      0.436174145     -36.4424563
187.65               0.435740408     -36.3018842      0.557415021      174.763266      0.557415021      174.763266      0.435731399     -36.3012178
187.84               0.435335832     -36.1606959      0.556455584      174.302964      0.556455584      174.302964      0.435326763     -36.1599715
188.03               0.434969086     -36.0196468      0.555492022      173.843666      0.555492021      173.843666      0.434959977     -36.0188637
188.22                0.43463988     -35.8788815      0.554524594      173.385398      0.554524593      173.385398      0.434630753     -35.8780392
188.41               0.434347892      -35.738543      0.553553562      172.928184      0.553553561      172.928184      0.434338768      -35.737641
188.6                0.434092773     -35.5987721      0.552579189       172.47205      0.552579188       172.47205      0.434083673       -35.59781
188.79               0.433874141     -35.4597073      0.551601738       172.01702      0.551601737       172.01702      0.433865088     -35.4586851
188.98                0.43369159     -35.3214848       0.55062147      171.563118      0.550621469      171.563118      0.433682605     -35.3204026
189.17               0.433544684     -35.1842381      0.549638648      171.110367      0.549638647      171.110367       0.43353579     -35.1830959
189.36               0.433432963     -35.0480975      0.548653535      170.658789      0.548653534      170.658789      0.433424182     -35.0468958
189.55               0.433355943     -34.9131906      0.547666393      170.208406      0.547666392      170.208406      0.433347296     -34.9119298
189.74               0.433313113     -34.7796413      0.546677481      169.759239       0.54667748      169.759239      0.433304623     -34.7783221
189.93               0.433303942     -34.6475704       0.54568706      169.311309       0.54568706      169.311309      0.433295631     -34.6461936
190.12               0.433327877     -34.5170948       0.54469539      168.864635      0.544695389      168.864636      0.433319767     -34.5156615
190.31               0.433384346      -34.388328      0.543702726      168.419238      0.543702725      168.419238      0.433376457     -34.3868392
190.5                0.433472755     -34.2613791      0.542709325      167.975134      0.542709324      167.975134       0.43346511     -34.2598362
190.69               0.433592496     -34.1363538      0.541715442      167.532343      0.541715441      167.532343      0.433585114     -34.1347582
190.88               0.433742941     -34.0133532      0.540721327      167.090882      0.540721326      167.090882      0.433735843     -34.0117064
191.07               0.433923449     -33.8924745      0.539727232      166.650766      0.539727231      166.650766      0.433916656     -33.8907783
191.26               0.434133365     -33.7738106      0.538733403      166.212013      0.538733402      166.212013      0.434126895     -33.7720669
191.45               0.434372018     -33.6574501      0.537740087      165.774637      0.537740086      165.774637      0.434365891     -33.6556608
191.64                0.43463873     -33.5434772      0.536747526      165.338654      0.536747525      165.338654      0.434632964     -33.5416445
191.83                0.43493281     -33.4319719      0.535755961      164.904078       0.53575596      164.904078      0.434927422     -33.4300979
192.02               0.435253557     -33.3230094      0.534765627      164.470921      0.534765626      164.470921      0.435248565     -33.3210966
192.21               0.435600264      -33.216661       0.53377676      164.039198      0.533776759      164.039198      0.435595684     -33.2147118
192.4                0.435972216     -33.1129934       0.53278959      163.608919      0.532789589      163.608919      0.435968064     -33.1110102
192.59               0.436368693     -33.0120687      0.531804346      163.180098      0.531804345      163.180098      0.436364984     -33.0100544
192.78               0.436788969      -32.913945      0.530821252      162.752745      0.530821251      162.752745      0.436785716     -32.9119023
192.97               0.437232315     -32.8186761      0.529840529      162.326871      0.529840528      162.326871      0.437229533     -32.8166077
193.16               0.437698001     -32.7263112      0.528862394      161.902486      0.528862393      161.902486      0.437695702       -32.72422
193.35               0.438185294     -32.6368956      0.527887061      161.479599       0.52788706      161.479599      0.438183489     -32.6347847
193.54                0.43869346     -32.5504704       0.52691474      161.058219      0.526914739      161.058219       0.43869216     -32.5483428
193.73               0.439221767     -32.4670726      0.525945638      160.638354      0.525945636      160.638354      0.439220981     -32.4649314
193.92               0.439769483     -32.3867353      0.524979956      160.220013      0.524979955      160.220013      0.439769221     -32.3845837
194.11               0.440335879     -32.3094877      0.524017894      159.803202      0.524017893      159.803202      0.440336149     -32.3073288
194.3                0.440920229     -32.2353552      0.523059645      159.387928      0.523059644      159.387928      0.440921038     -32.2331923
194.49               0.441521811     -32.1643594        0.5221054      158.974197      0.522105399      158.974197      0.441523164     -32.1621957
194.68               0.442139907     -32.0965184      0.521155346      158.562016      0.521155344      158.562016       0.44214181     -32.0943573
194.87               0.442773805      -32.031847      0.520209663      158.151388      0.520209662      158.151388      0.442776261     -32.0296916
195.06               0.443422799     -31.9703562      0.519268531       157.74232      0.519268529       157.74232      0.443425812       -31.96821
195.25               0.444086189     -31.9120542      0.518332122      157.334815       0.51833212      157.334815      0.444089761     -31.9099204
195.44               0.444763282     -31.8569457      0.517400606      156.928878      0.517400605      156.928878      0.444767414     -31.8548277
195.63               0.445453396     -31.8050325      0.516474148       156.52451      0.516474147       156.52451      0.445458088     -31.8029336
195.82               0.446155852     -31.7563135      0.515552909      156.121716      0.515552908      156.121716      0.446161104      -31.754237
196.01               0.446869986     -31.7107849      0.514637046      155.720498      0.514637044      155.720498      0.446875795     -31.7087341
196.2                0.447595138     -31.6684401       0.51372671      155.320858      0.513726709      155.320858      0.447601502     -31.6664181
196.39                0.44833066     -31.6292698      0.512822049      154.922798      0.512822048      154.922798      0.448337576     -31.6272801
196.58               0.449075915     -31.5932627      0.511923208      154.526318      0.511923207      154.526318      0.449083378     -31.5913083
196.77               0.449830276     -31.5604047      0.511030325       154.13142      0.511030324       154.13142       0.44983828      -31.558489
196.96               0.450593125     -31.5306799      0.510143535      153.738104      0.510143534      153.738104      0.450601665     -31.5288058
197.15               0.451363858       -31.50407      0.509262969      153.346371      0.509262968      153.346371      0.451372925     -31.5022407
197.34               0.452141879     -31.4805549      0.508388754       152.95622      0.508388753       152.95622      0.452151466     -31.4787735
197.53               0.452926607     -31.4601127      0.507521012       152.56765       0.50752101       152.56765      0.452936704     -31.4583821
197.72               0.453717471     -31.4427195       0.50665986      152.180661      0.506659859      152.180661      0.453728068     -31.4410427
197.91                0.45451391       -31.42835      0.505805413      151.795251      0.505805412      151.795251      0.454524997     -31.4267299
198.1                 0.45531538     -31.4169773       0.50495778      151.411419      0.504957779      151.411419      0.455326944     -31.4154167
198.29               0.456121344      -31.408573      0.504117067      151.029163      0.504117066      151.029163      0.456133374     -31.4070746
198.48                0.45693128     -31.4031074      0.503283376      150.648481      0.503283375      150.648481      0.456943763      -31.401674
198.67               0.457744678     -31.4005496      0.502456804      150.269371      0.502456802      150.269371      0.457757599     -31.3991839
198.86                0.45856104     -31.4008676      0.501637444      149.891829      0.501637442      149.891829      0.458574386      -31.399572
199.05               0.459379881     -31.4040281      0.500825386      149.515853      0.500825384      149.515853      0.459393635     -31.4028052
199.24               0.460200728     -31.4099972      0.500020716      149.141439      0.500020714      149.141439      0.460214875     -31.4088494
199.43                0.46102312     -31.4187398      0.499223515      148.768584      0.499223514      148.768584      0.461037642     -31.4176694
199.62               0.461846608     -31.4302202      0.498433862      148.397285      0.498433861      148.397285      0.461861489     -31.4292296
199.81               0.462670757     -31.4444019      0.497651831      148.027537      0.497651829      148.027537      0.462685978     -31.4434932
200                  0.463495142     -31.4612478      0.496877492      147.659336       0.49687749      147.659336      0.463510685     -31.4604232
